% Access-log corpus for adaptive decryption control.
% Natural encoding: categorical attributes kept nominal, counts numeric.
% Class attribute is risk_level: 0=LOW, 1=MEDIUM, 2=HIGH.
@relation access_logs_train

@attribute user_role {customer,moderator,admin}
@attribute resource_sensitivity {LOW,MEDIUM,HIGH}
@attribute is_office_hours {0,1}
@attribute record_owner_match {0,1}
@attribute recent_request_count numeric
@attribute failed_attempt_count numeric
@attribute risk_level {0,1,2}

@data
moderator,MEDIUM,1,0,3,0,0
customer,LOW,1,1,6,0,0
customer,MEDIUM,1,1,4,0,0
customer,LOW,0,1,4,0,0
moderator,HIGH,1,0,6,0,2
customer,LOW,0,1,1,7,2
customer,LOW,1,1,6,0,0
moderator,LOW,1,0,4,0,0
customer,LOW,1,1,5,1,0
customer,LOW,1,1,4,0,0
customer,LOW,1,1,4,0,0
customer,LOW,1,0,2,0,1
customer,MEDIUM,1,1,5,0,0
customer,LOW,1,1,7,0,0
customer,MEDIUM,1,1,4,0,0
customer,MEDIUM,1,0,4,0,2
customer,MEDIUM,1,1,3,2,0
customer,HIGH,1,1,7,0,0
customer,MEDIUM,0,1,3,0,0
customer,MEDIUM,0,1,5,0,0
customer,LOW,1,1,0,0,0
customer,LOW,1,1,3,0,0
customer,LOW,1,1,5,0,0
moderator,HIGH,1,1,5,0,2
customer,LOW,1,1,3,8,2
customer,LOW,1,1,40,0,2
customer,HIGH,1,1,4,0,0
customer,LOW,1,1,1,0,0
customer,LOW,0,1,8,3,0
customer,LOW,1,1,2,5,2
moderator,LOW,1,0,2,0,0
customer,HIGH,1,1,8,0,0
customer,LOW,1,1,3,0,0
customer,HIGH,1,1,6,1,0
customer,LOW,1,0,4,0,1
customer,MEDIUM,1,1,4,1,0
customer,LOW,0,1,4,0,0
admin,LOW,1,0,3,0,0
customer,LOW,1,1,0,0,0
customer,LOW,1,1,3,3,0
customer,LOW,1,1,0,0,0
customer,HIGH,1,1,4,0,0
moderator,LOW,1,0,3,0,0
moderator,MEDIUM,1,0,6,0,0
customer,MEDIUM,1,1,2,0,1
customer,MEDIUM,1,1,3,0,0
admin,HIGH,1,1,3,0,0
moderator,LOW,1,0,7,0,0
customer,MEDIUM,0,1,3,0,0
customer,LOW,1,1,2,0,0
admin,LOW,1,0,7,0,0
customer,LOW,0,1,5,0,0
customer,LOW,1,1,3,0,0
moderator,LOW,1,0,5,0,0
customer,LOW,1,1,15,0,1
customer,LOW,1,1,38,0,2
customer,LOW,0,1,2,0,1
customer,MEDIUM,0,1,3,0,0
customer,LOW,1,0,6,0,1
moderator,LOW,1,0,5,0,0
customer,HIGH,1,1,5,2,0
customer,LOW,1,1,1,0,0
moderator,LOW,1,0,46,0,2
moderator,LOW,0,0,3,0,0
customer,MEDIUM,1,1,4,0,0
moderator,LOW,1,0,3,0,0
customer,LOW,0,1,5,0,0
customer,MEDIUM,1,1,3,0,0
customer,LOW,1,1,34,0,2
moderator,LOW,1,0,6,0,0
customer,MEDIUM,1,1,3,0,0
admin,LOW,1,0,4,0,0
customer,LOW,1,0,6,0,1
moderator,LOW,0,0,4,0,0
customer,LOW,1,1,22,0,2
customer,LOW,1,1,1,0,0
customer,LOW,0,0,4,0,1
customer,LOW,0,1,4,4,0
customer,LOW,0,1,28,0,2
moderator,MEDIUM,0,0,3,0,1
customer,LOW,1,1,2,0,0
customer,LOW,1,1,1,0,0
admin,MEDIUM,1,0,5,0,0
customer,LOW,1,1,3,0,0
customer,LOW,1,1,3,0,0
moderator,LOW,0,0,4,0,0
customer,LOW,1,1,3,0,0
customer,LOW,1,1,3,0,0
customer,LOW,0,1,5,0,0
customer,MEDIUM,0,1,2,0,0
admin,LOW,0,1,1,0,0
moderator,MEDIUM,1,0,5,0,0
customer,LOW,1,1,5,0,0
moderator,LOW,1,1,2,5,2
customer,MEDIUM,1,1,8,0,0
moderator,LOW,1,0,6,0,0
customer,LOW,1,1,5,0,0
customer,LOW,0,1,3,0,0
customer,LOW,1,0,4,0,1
customer,LOW,1,1,5,0,0
moderator,LOW,1,0,6,0,0
customer,LOW,1,1,3,0,0
customer,LOW,1,1,4,0,0
customer,LOW,1,1,8,0,0
customer,LOW,1,1,2,0,0
customer,MEDIUM,1,1,4,0,0
customer,LOW,0,1,4,1,0
customer,MEDIUM,1,1,7,0,0
customer,LOW,0,0,57,0,2
customer,LOW,1,1,3,0,0
customer,LOW,1,1,2,2,0
customer,LOW,1,1,5,0,0
customer,LOW,1,1,6,0,0
moderator,LOW,0,0,6,0,0
customer,MEDIUM,1,1,6,0,0
customer,MEDIUM,1,1,6,0,0
admin,LOW,1,1,6,0,0
customer,LOW,1,1,4,0,0
customer,LOW,1,1,4,3,0
customer,HIGH,1,1,3,0,0
moderator,MEDIUM,0,0,4,0,1
customer,MEDIUM,1,1,2,1,0
customer,LOW,1,1,3,0,0
moderator,HIGH,0,1,5,0,2
customer,MEDIUM,1,0,5,0,2
customer,MEDIUM,1,1,2,0,0
customer,LOW,1,1,1,0,0
moderator,LOW,1,0,5,0,0
admin,MEDIUM,1,0,3,0,0
customer,MEDIUM,1,1,5,0,0
moderator,LOW,0,1,5,0,0
moderator,LOW,1,0,3,0,0
moderator,LOW,1,0,3,0,0
customer,LOW,1,1,5,0,0
customer,MEDIUM,0,1,4,0,0
customer,MEDIUM,1,1,2,0,0
customer,LOW,1,1,29,0,2
customer,HIGH,1,1,7,0,0
customer,MEDIUM,1,1,1,0,0
customer,MEDIUM,1,1,4,1,0
customer,MEDIUM,1,1,4,0,0
customer,MEDIUM,1,1,1,0,0
customer,MEDIUM,1,1,2,0,0
customer,MEDIUM,1,1,6,0,0
customer,LOW,0,1,9,0,1
moderator,MEDIUM,1,0,53,0,2
moderator,MEDIUM,1,0,6,0,0
customer,MEDIUM,0,1,3,0,0
customer,LOW,1,1,5,2,0
moderator,HIGH,1,1,3,0,2
customer,LOW,1,1,2,0,0
customer,HIGH,1,1,4,0,0
moderator,LOW,1,0,5,4,0
moderator,LOW,1,0,2,0,0
customer,LOW,1,1,7,0,0
customer,LOW,1,1,6,0,0
admin,MEDIUM,0,0,1,0,0
customer,LOW,1,1,4,0,0
moderator,MEDIUM,1,0,4,0,0
admin,LOW,1,0,2,0,0
customer,LOW,1,1,4,0,0
customer,LOW,1,1,5,0,0
customer,LOW,1,1,5,1,0
customer,LOW,1,1,5,0,0
admin,LOW,1,0,2,0,0
customer,LOW,1,1,4,0,0
customer,LOW,1,1,3,0,0
moderator,LOW,1,0,4,0,0
moderator,LOW,1,0,2,0,0
customer,MEDIUM,1,1,5,0,0
customer,MEDIUM,1,1,4,0,0
customer,HIGH,1,1,7,0,0
customer,LOW,0,1,5,0,0
customer,LOW,1,1,9,8,2
customer,MEDIUM,0,1,9,0,1
customer,MEDIUM,1,1,7,0,0
customer,LOW,1,1,1,1,0
moderator,MEDIUM,1,1,4,2,0
customer,LOW,1,1,6,3,0
customer,LOW,1,1,5,0,0
customer,MEDIUM,1,1,3,0,0
moderator,LOW,1,0,5,3,0
customer,MEDIUM,1,1,4,0,0
customer,LOW,1,1,1,0,0
customer,LOW,1,1,4,0,0
customer,MEDIUM,1,1,7,0,0
customer,LOW,1,1,4,0,0
moderator,LOW,0,0,4,0,0
admin,MEDIUM,0,0,6,0,0
customer,LOW,1,1,3,2,0
moderator,LOW,1,0,8,0,0
customer,LOW,1,1,5,0,0
customer,LOW,1,1,5,0,0
admin,LOW,0,0,6,0,0
customer,LOW,0,1,54,0,2
customer,HIGH,1,1,5,0,0
customer,MEDIUM,1,1,4,0,0
customer,LOW,1,1,2,0,0
customer,MEDIUM,1,1,6,0,0
customer,MEDIUM,1,1,4,0,0
customer,LOW,1,0,4,0,1
customer,MEDIUM,0,1,7,0,0
moderator,MEDIUM,1,1,3,0,0
customer,LOW,0,1,4,0,0
moderator,MEDIUM,1,0,5,0,0
customer,LOW,1,1,0,0,0
customer,LOW,1,0,3,0,1
customer,MEDIUM,1,1,5,0,0
customer,LOW,0,1,4,0,0
customer,LOW,1,1,3,0,0
customer,LOW,1,1,2,0,0
customer,HIGH,1,1,8,0,0
admin,LOW,1,0,5,0,0
customer,LOW,1,1,3,0,0
customer,MEDIUM,1,1,7,3,0
moderator,LOW,0,0,4,0,0
customer,LOW,1,1,5,0,0
customer,LOW,1,1,3,0,0
moderator,MEDIUM,1,0,2,0,0
moderator,MEDIUM,1,0,5,0,0
customer,MEDIUM,1,1,5,0,0
customer,LOW,1,1,0,0,0
customer,MEDIUM,1,1,3,0,0
customer,LOW,0,1,4,0,0
customer,MEDIUM,1,1,1,3,0
customer,MEDIUM,0,1,4,0,0
moderator,MEDIUM,1,0,7,0,0
customer,MEDIUM,1,1,4,0,0
customer,LOW,1,1,2,0,0
customer,MEDIUM,1,0,7,0,2
moderator,MEDIUM,1,0,6,0,0
customer,LOW,1,1,2,0,0
customer,LOW,1,1,53,0,2
customer,LOW,1,1,2,0,0
customer,MEDIUM,1,1,2,0,0
customer,LOW,1,1,6,3,0
customer,LOW,1,1,3,0,0
customer,LOW,1,1,4,0,0
customer,LOW,1,0,8,0,1
customer,HIGH,0,1,5,0,0
customer,LOW,1,1,3,0,0
customer,LOW,1,1,6,5,2
customer,LOW,0,0,5,0,0
customer,LOW,1,1,6,0,0
moderator,MEDIUM,1,1,6,0,0
customer,LOW,0,0,4,0,1
customer,LOW,0,1,6,8,2
customer,LOW,0,1,5,0,0
customer,HIGH,1,1,1,0,0
customer,HIGH,0,1,5,0,0
customer,MEDIUM,1,1,4,0,0
customer,MEDIUM,1,1,3,0,0
customer,LOW,1,1,5,3,0
admin,LOW,0,0,3,0,0
customer,LOW,1,1,6,0,0
customer,MEDIUM,1,1,5,0,0
moderator,LOW,1,1,8,0,0
moderator,HIGH,0,0,1,0,2
customer,MEDIUM,1,1,5,0,0
moderator,MEDIUM,1,0,4,2,0
admin,LOW,1,0,3,0,0
customer,LOW,1,1,7,0,0
customer,LOW,1,1,2,0,0
customer,LOW,1,1,4,0,1
customer,LOW,1,1,2,1,0
customer,LOW,1,1,4,2,0
customer,MEDIUM,1,0,3,0,2
customer,LOW,1,1,2,0,0
customer,LOW,1,1,5,0,0
customer,MEDIUM,0,1,6,0,0
admin,MEDIUM,1,0,4,0,0
customer,HIGH,1,1,3,0,2
customer,MEDIUM,1,0,2,0,2
customer,MEDIUM,1,1,5,0,0
customer,LOW,1,1,6,0,0
customer,LOW,0,1,3,0,0
customer,LOW,0,1,3,0,0
customer,LOW,0,1,7,3,0
customer,LOW,1,0,5,0,1
moderator,HIGH,1,0,6,0,2
customer,MEDIUM,1,1,2,0,0
customer,HIGH,1,1,7,0,0
customer,HIGH,1,1,4,0,0
customer,MEDIUM,1,1,4,0,0
customer,MEDIUM,1,1,2,0,0
customer,LOW,1,1,4,3,0
moderator,LOW,0,0,14,0,0
customer,MEDIUM,1,1,4,0,0
moderator,MEDIUM,1,0,1,0,0
customer,HIGH,1,1,4,0,0
customer,MEDIUM,0,1,2,0,0
customer,LOW,1,1,1,0,0
customer,LOW,1,1,3,0,0
customer,LOW,1,1,6,0,0
moderator,LOW,1,0,4,0,0
customer,LOW,0,1,4,0,0
moderator,LOW,1,0,4,1,0
customer,LOW,1,1,5,0,0
customer,LOW,1,1,7,0,0
customer,LOW,0,1,5,0,0
admin,MEDIUM,1,0,6,0,0
moderator,LOW,1,0,6,0,0
moderator,LOW,1,0,4,0,0
moderator,LOW,1,0,5,0,0
admin,MEDIUM,1,0,4,1,0
moderator,LOW,1,0,5,1,0
customer,LOW,1,1,7,0,0
moderator,LOW,1,1,4,0,0
customer,LOW,1,1,7,0,0
customer,LOW,1,1,6,0,0
customer,LOW,1,1,5,0,0
moderator,LOW,1,1,5,0,0
customer,LOW,1,0,6,0,1
customer,LOW,1,0,3,0,1
customer,LOW,0,1,5,0,0
customer,LOW,1,1,49,0,2
customer,LOW,0,1,2,0,0
customer,MEDIUM,1,1,4,0,0
customer,HIGH,0,1,1,4,0
customer,MEDIUM,0,1,4,1,0
customer,LOW,1,1,5,0,0
customer,LOW,1,0,3,0,1
customer,LOW,1,1,2,0,1
customer,LOW,1,1,4,0,0
customer,LOW,0,1,6,0,0
moderator,LOW,1,0,3,0,0
customer,LOW,1,1,4,0,0
customer,MEDIUM,1,1,1,0,0
customer,MEDIUM,1,1,3,0,0
customer,LOW,0,1,2,0,0
moderator,LOW,1,0,2,0,0
customer,MEDIUM,1,1,62,0,2
customer,LOW,1,1,3,2,0
customer,LOW,0,1,4,0,0
customer,LOW,1,1,2,0,0
customer,MEDIUM,1,1,4,0,0
customer,LOW,0,1,3,0,0
customer,LOW,1,1,3,0,0
customer,LOW,1,1,3,0,0
customer,LOW,1,1,4,0,0
customer,MEDIUM,1,1,4,0,0
customer,MEDIUM,0,1,4,0,0
admin,MEDIUM,1,1,5,0,0
customer,LOW,1,1,4,0,0
customer,LOW,1,0,3,0,1
moderator,MEDIUM,1,1,4,0,0
customer,MEDIUM,1,1,2,1,0
customer,HIGH,1,1,7,0,0
customer,LOW,0,1,5,0,0
customer,LOW,1,1,5,0,0
moderator,MEDIUM,1,0,3,0,0
customer,LOW,1,1,5,1,0
moderator,MEDIUM,1,1,5,5,2
moderator,LOW,1,0,1,0,0
moderator,LOW,1,0,3,0,0
customer,LOW,1,1,4,1,0
customer,LOW,1,1,4,1,0
customer,LOW,1,1,8,0,0
customer,LOW,1,1,2,0,0
customer,MEDIUM,1,1,6,0,0
admin,MEDIUM,1,1,4,0,0
customer,HIGH,0,1,2,0,0
admin,HIGH,1,0,2,0,1
customer,LOW,1,1,2,0,0
customer,LOW,1,1,23,1,2
customer,LOW,1,1,8,0,0
customer,LOW,1,1,2,0,0
customer,LOW,0,1,5,0,0
customer,LOW,1,1,3,0,0
moderator,LOW,1,0,6,0,0
customer,LOW,1,1,0,0,0
moderator,LOW,1,0,5,1,0
customer,LOW,0,1,6,0,0
moderator,MEDIUM,1,0,5,0,0
admin,LOW,1,1,5,0,1
customer,LOW,1,1,0,0,0
customer,MEDIUM,1,1,4,0,0
customer,HIGH,0,1,7,3,0
customer,LOW,0,1,4,0,0
customer,HIGH,1,1,1,0,0
customer,LOW,0,1,0,0,0
customer,HIGH,1,1,5,2,0
customer,LOW,1,1,3,0,0
customer,LOW,0,1,5,0,0
customer,LOW,1,1,5,0,0
customer,LOW,1,1,1,0,0
customer,LOW,0,1,5,0,0
customer,LOW,1,1,3,0,0
moderator,LOW,1,0,4,0,0
moderator,LOW,1,0,5,2,0
moderator,MEDIUM,1,0,3,0,0
customer,HIGH,1,1,6,0,0
customer,LOW,1,1,3,0,0
customer,LOW,1,1,2,0,0
customer,MEDIUM,0,1,5,0,0
customer,HIGH,1,1,5,0,0
customer,LOW,1,1,2,0,0
customer,LOW,1,1,1,0,0
customer,LOW,1,1,6,0,0
customer,LOW,1,1,2,0,0
customer,LOW,0,1,2,0,0
customer,MEDIUM,0,1,4,0,0
customer,LOW,0,1,3,0,0
customer,HIGH,0,1,5,0,0
customer,LOW,1,1,1,0,0
customer,MEDIUM,1,1,2,0,0
customer,HIGH,0,1,4,0,0
customer,LOW,1,1,3,0,0
customer,LOW,1,1,6,0,0
customer,LOW,1,1,4,0,0
customer,LOW,1,1,5,0,0
moderator,LOW,1,0,1,0,0
customer,HIGH,1,1,4,0,0
customer,MEDIUM,1,1,3,0,0
customer,LOW,0,1,5,0,0
customer,LOW,1,1,45,0,2
customer,LOW,1,1,4,0,0
customer,HIGH,1,1,2,0,0
customer,HIGH,1,1,3,0,0
customer,LOW,0,1,3,0,0
customer,MEDIUM,1,1,7,0,0
customer,LOW,1,1,3,6,2
customer,LOW,1,1,3,0,0
customer,LOW,1,1,2,0,0
customer,MEDIUM,1,1,1,0,0
customer,HIGH,1,1,5,0,0
customer,MEDIUM,1,1,3,0,0
customer,HIGH,1,1,5,0,0
customer,LOW,1,1,2,0,0
moderator,LOW,1,0,5,0,0
customer,LOW,0,1,5,1,1
customer,LOW,1,1,2,0,0
moderator,HIGH,1,0,4,2,2
admin,HIGH,1,0,56,0,1
customer,MEDIUM,0,1,2,0,0
customer,HIGH,1,1,2,1,0
customer,LOW,1,1,2,0,0
customer,LOW,1,1,7,0,0
customer,LOW,1,1,4,0,0
customer,MEDIUM,1,0,3,0,2
admin,LOW,1,0,3,2,0
customer,LOW,0,1,2,0,0
customer,LOW,0,1,15,0,1
customer,MEDIUM,1,1,7,0,0
customer,LOW,0,1,8,0,0
customer,LOW,1,1,5,0,0
moderator,MEDIUM,1,0,2,0,0
customer,MEDIUM,0,1,3,0,0
customer,LOW,1,1,2,0,0
customer,LOW,1,1,5,0,0
customer,MEDIUM,1,1,4,0,0
moderator,LOW,1,0,34,0,2
moderator,MEDIUM,1,0,2,0,0
customer,LOW,1,1,7,0,0
customer,MEDIUM,0,1,4,0,0
customer,MEDIUM,0,1,7,0,0
moderator,LOW,1,0,4,0,0
customer,MEDIUM,1,1,7,0,0
admin,MEDIUM,1,0,5,4,1
customer,MEDIUM,1,0,6,0,2
customer,LOW,1,1,6,0,0
moderator,MEDIUM,0,1,5,0,1
customer,LOW,1,1,4,0,0
customer,LOW,1,1,3,0,0
customer,LOW,0,1,2,0,0
customer,LOW,1,1,1,0,0
moderator,LOW,1,1,6,0,0
customer,HIGH,1,1,1,8,0
customer,HIGH,1,1,2,0,0
customer,MEDIUM,0,1,2,0,0
admin,MEDIUM,1,0,33,0,1
customer,LOW,1,1,5,0,0
customer,LOW,0,1,4,3,0
customer,HIGH,1,1,5,0,0
customer,LOW,1,1,2,0,0
admin,LOW,1,0,4,0,0
customer,LOW,1,1,2,0,0
customer,MEDIUM,1,1,0,0,0
customer,MEDIUM,1,1,4,0,0
customer,MEDIUM,1,1,1,0,0
customer,MEDIUM,1,0,0,0,0
customer,LOW,1,1,3,7,2
customer,HIGH,0,1,2,0,0
customer,HIGH,1,1,4,0,0
customer,LOW,1,1,3,0,0
moderator,LOW,1,0,3,0,0
customer,LOW,1,1,7,0,0
customer,MEDIUM,1,1,1,0,0
customer,MEDIUM,1,1,7,0,0
customer,LOW,1,1,6,0,0
customer,HIGH,1,1,0,0,0
customer,LOW,1,1,5,0,0
customer,LOW,0,1,6,0,0
moderator,LOW,1,1,4,0,0
moderator,MEDIUM,0,0,6,0,1
moderator,MEDIUM,1,1,4,3,0
customer,LOW,1,1,1,1,0
customer,LOW,1,1,4,0,0
customer,LOW,1,1,3,0,0
moderator,LOW,1,1,2,0,0
customer,MEDIUM,1,1,7,0,0
customer,LOW,0,1,4,0,0
customer,MEDIUM,0,1,5,0,0
moderator,LOW,1,0,6,0,0
customer,LOW,1,0,4,0,1
customer,LOW,1,1,9,0,1
customer,LOW,0,1,4,0,0
moderator,LOW,0,0,2,0,0
customer,LOW,1,1,4,0,0
customer,MEDIUM,1,1,1,0,0
customer,LOW,1,1,5,0,0
customer,LOW,1,1,3,0,0
customer,LOW,1,1,8,0,0
customer,LOW,1,1,4,0,0
customer,MEDIUM,1,1,6,0,0
customer,HIGH,1,1,4,0,0
customer,LOW,1,1,3,0,0
customer,MEDIUM,0,1,8,0,0
customer,LOW,1,1,2,0,0
customer,LOW,1,1,43,0,2
customer,LOW,0,1,5,0,0
moderator,MEDIUM,0,0,1,0,1
customer,MEDIUM,1,1,6,0,0
moderator,LOW,1,0,5,0,0
customer,HIGH,1,1,4,0,0
customer,LOW,1,1,7,0,0
customer,LOW,1,1,8,0,0
customer,LOW,1,0,1,0,1
customer,LOW,0,1,7,0,0
customer,MEDIUM,1,1,1,0,0
customer,LOW,0,1,2,0,0
customer,LOW,1,1,2,0,0
customer,MEDIUM,1,1,4,0,0
customer,MEDIUM,1,1,1,0,0
moderator,LOW,1,0,2,0,0
moderator,LOW,1,0,6,0,0
customer,LOW,0,1,29,0,2
customer,MEDIUM,1,1,2,0,0
customer,LOW,0,1,6,0,0
customer,LOW,0,1,6,0,0
moderator,MEDIUM,1,0,9,0,0
customer,LOW,1,1,9,0,1
customer,LOW,1,1,6,0,0
customer,LOW,1,1,11,0,1
moderator,LOW,1,0,1,0,0
customer,MEDIUM,1,1,1,0,2
customer,LOW,1,1,6,0,0
customer,LOW,1,1,2,2,0
customer,LOW,1,1,3,1,0
customer,MEDIUM,0,1,4,0,0
customer,LOW,1,1,7,0,0
customer,MEDIUM,1,1,8,0,0
customer,LOW,0,1,1,2,0
customer,MEDIUM,0,1,4,0,0
customer,LOW,1,1,3,0,0
customer,LOW,1,1,5,0,0
customer,LOW,1,1,10,0,1
customer,MEDIUM,1,0,3,0,2
moderator,LOW,1,0,1,0,0
customer,LOW,1,1,3,0,0
moderator,HIGH,1,0,3,0,2
customer,LOW,0,1,3,0,0
admin,LOW,1,0,3,0,0
moderator,LOW,1,1,5,0,0
customer,MEDIUM,1,0,4,0,2
customer,LOW,1,1,5,0,0
moderator,LOW,1,1,4,0,0
moderator,LOW,0,0,4,0,0
customer,MEDIUM,1,1,5,0,0
customer,LOW,1,1,4,0,0
customer,MEDIUM,1,1,3,0,0
moderator,LOW,0,0,4,0,0
customer,LOW,1,1,2,0,0
customer,LOW,0,1,4,0,0
customer,LOW,1,1,2,0,0
customer,HIGH,1,1,7,1,0
customer,MEDIUM,1,1,3,0,0
customer,MEDIUM,1,1,3,0,0
customer,LOW,0,1,5,0,0
moderator,LOW,1,0,63,0,2
customer,LOW,1,1,6,2,0
customer,MEDIUM,1,1,2,0,0
customer,MEDIUM,1,1,3,0,0
customer,LOW,1,1,4,0,0
customer,MEDIUM,0,1,4,0,0
customer,MEDIUM,0,1,4,0,0
customer,MEDIUM,1,1,2,2,0
customer,LOW,1,1,4,0,0
customer,LOW,1,1,2,0,0
customer,LOW,1,1,8,1,0
admin,MEDIUM,1,0,60,0,1
customer,MEDIUM,1,1,2,1,0
customer,MEDIUM,1,1,2,0,0
customer,LOW,1,1,1,0,0
customer,LOW,1,1,3,0,0
customer,LOW,1,1,6,1,0
customer,MEDIUM,1,1,4,1,0
moderator,MEDIUM,1,0,5,0,0
moderator,MEDIUM,0,0,60,0,2
moderator,LOW,1,0,3,0,0
moderator,MEDIUM,1,0,2,0,0
customer,LOW,1,1,3,0,0
moderator,LOW,0,1,5,0,0
moderator,MEDIUM,1,0,1,0,0
moderator,LOW,1,0,6,0,0
customer,LOW,1,1,1,0,0
admin,LOW,0,0,5,0,0
customer,HIGH,1,0,3,0,2
customer,LOW,1,0,3,0,1
moderator,LOW,0,0,7,0,0
customer,LOW,0,1,4,1,0
customer,LOW,1,1,7,0,0
customer,LOW,1,1,4,0,0
customer,LOW,1,1,3,0,0
customer,LOW,1,1,4,0,0
customer,LOW,1,0,3,1,1
customer,MEDIUM,0,1,4,0,0
customer,LOW,1,1,6,0,0
admin,MEDIUM,1,0,2,0,0
customer,MEDIUM,1,1,5,0,0
customer,LOW,1,0,1,0,1
customer,LOW,1,1,8,0,0
customer,LOW,1,1,1,0,0
customer,LOW,1,1,4,0,0
customer,LOW,0,1,4,1,0
moderator,LOW,1,0,2,0,0
customer,MEDIUM,1,1,5,0,0
moderator,LOW,1,0,2,0,0
customer,MEDIUM,1,1,9,0,1
customer,MEDIUM,1,0,5,0,2
admin,MEDIUM,1,0,2,0,0
customer,MEDIUM,1,1,7,0,0
moderator,HIGH,1,0,2,0,0
customer,LOW,1,1,5,0,0
moderator,MEDIUM,1,0,5,0,0
customer,HIGH,1,1,54,0,2
customer,HIGH,1,1,7,0,0
customer,MEDIUM,1,1,6,0,0
customer,MEDIUM,1,1,5,0,0
customer,LOW,1,1,7,0,0
customer,LOW,1,1,6,0,0
customer,HIGH,1,1,2,0,0
customer,LOW,1,1,2,0,0
customer,MEDIUM,1,1,4,0,0
customer,MEDIUM,1,1,1,0,0
customer,LOW,1,1,2,3,0
customer,LOW,1,1,3,0,0
customer,MEDIUM,1,1,3,0,0
customer,LOW,1,1,2,0,0
customer,MEDIUM,1,1,3,0,0
customer,LOW,1,1,4,0,0
customer,LOW,1,1,5,0,0
customer,MEDIUM,1,1,3,6,2
customer,MEDIUM,1,1,3,0,0
customer,LOW,1,1,4,0,0
customer,HIGH,0,1,6,0,0
customer,LOW,1,1,6,0,0
customer,LOW,0,1,6,3,0
customer,LOW,1,1,3,0,0
admin,LOW,1,0,4,0,0
customer,LOW,1,1,5,0,0
customer,LOW,1,1,1,0,0
moderator,MEDIUM,1,1,2,0,0
customer,LOW,0,1,4,0,0
customer,MEDIUM,1,1,3,0,0
customer,MEDIUM,0,1,4,0,0
customer,HIGH,1,1,1,0,0
moderator,LOW,1,0,7,0,0
customer,LOW,1,0,7,0,0
customer,LOW,1,1,52,2,2
customer,LOW,1,1,3,0,0
customer,LOW,0,1,4,0,0
customer,LOW,1,1,5,0,0
customer,LOW,1,1,3,0,0
customer,LOW,1,1,4,0,0
customer,LOW,1,1,6,0,0
customer,LOW,0,1,3,0,0
customer,MEDIUM,1,0,3,0,2
customer,LOW,0,1,2,0,0
customer,LOW,1,1,3,5,2
moderator,LOW,1,0,4,0,0
admin,HIGH,0,0,3,0,0
customer,LOW,1,1,5,0,0
customer,LOW,0,1,4,2,0
customer,LOW,1,1,3,0,0
customer,LOW,1,1,4,0,0
customer,MEDIUM,0,1,6,0,0
customer,MEDIUM,1,1,5,1,0
customer,MEDIUM,1,1,55,0,2
customer,LOW,1,1,4,0,0
customer,LOW,1,1,5,0,0
customer,MEDIUM,1,1,2,0,0
customer,LOW,1,1,2,0,0
customer,MEDIUM,1,1,2,0,0
customer,LOW,1,1,4,0,0
customer,LOW,1,1,3,0,0
customer,LOW,1,1,6,0,0
customer,MEDIUM,1,1,5,0,0
customer,LOW,0,1,4,0,0
customer,MEDIUM,1,1,2,0,0
customer,MEDIUM,0,1,3,0,0
customer,LOW,1,1,5,0,0
customer,LOW,0,1,2,0,0
customer,LOW,1,1,7,6,2
moderator,MEDIUM,1,0,8,0,0
customer,LOW,0,1,3,0,0
customer,LOW,1,1,1,2,0
customer,LOW,1,1,7,0,0
customer,LOW,1,1,6,0,0
customer,LOW,1,1,5,1,0
moderator,LOW,0,0,0,0,0
customer,LOW,1,1,3,0,0
customer,LOW,0,1,5,0,0
customer,LOW,1,1,3,6,2
customer,MEDIUM,1,1,5,0,0
customer,LOW,1,1,6,0,0
customer,LOW,0,1,1,0,0
customer,LOW,1,1,0,0,0
moderator,MEDIUM,1,0,2,0,0
customer,MEDIUM,1,1,6,0,0
customer,HIGH,0,1,3,0,0
customer,LOW,1,1,7,1,0
customer,LOW,1,1,2,6,2
customer,LOW,1,1,3,0,0
moderator,MEDIUM,0,0,0,0,1
customer,HIGH,1,1,2,0,0
customer,MEDIUM,1,1,3,0,0
customer,LOW,1,1,7,0,0
admin,MEDIUM,1,0,6,1,0
customer,LOW,1,1,3,0,0
customer,MEDIUM,1,1,9,0,1
customer,MEDIUM,1,1,3,0,0
customer,MEDIUM,1,0,4,0,2
customer,LOW,0,1,3,0,0
customer,LOW,1,1,2,1,0
customer,LOW,1,1,3,0,0
moderator,LOW,1,0,7,1,0
moderator,LOW,1,0,5,0,0
customer,MEDIUM,1,1,9,0,1
customer,LOW,1,1,7,0,1
moderator,LOW,1,0,7,0,0
customer,LOW,0,1,9,0,1
customer,LOW,1,1,7,0,0
customer,HIGH,1,1,4,0,0
customer,LOW,1,1,0,0,0
admin,MEDIUM,1,1,3,0,0
admin,LOW,1,0,3,0,0
customer,LOW,1,0,3,0,1
moderator,LOW,1,0,6,0,0
customer,LOW,1,1,6,0,0
customer,LOW,0,1,3,0,0
customer,LOW,1,0,8,1,1
customer,LOW,1,1,6,0,0
customer,LOW,1,1,3,0,0
customer,LOW,1,0,3,0,1
customer,LOW,0,1,3,0,0
admin,MEDIUM,1,0,5,0,0
customer,MEDIUM,1,1,5,0,0
customer,HIGH,1,1,3,0,0
customer,MEDIUM,0,1,7,0,0
customer,MEDIUM,0,1,3,0,0
customer,LOW,1,1,5,4,0
customer,LOW,1,1,54,0,2
customer,LOW,1,1,4,0,0
customer,MEDIUM,0,1,6,0,0
customer,LOW,1,1,6,0,0
customer,MEDIUM,1,0,3,1,2
moderator,LOW,1,0,2,1,0
customer,LOW,1,1,4,0,0
customer,LOW,1,1,2,0,0
moderator,LOW,1,0,5,0,0
customer,LOW,1,1,3,0,0
admin,LOW,1,0,1,0,0
customer,HIGH,1,1,3,0,0
customer,LOW,1,0,5,0,1
moderator,MEDIUM,1,0,8,0,0
customer,LOW,1,1,41,0,2
customer,LOW,1,1,4,0,0
customer,LOW,0,1,0,0,0
customer,HIGH,1,1,6,0,0
customer,HIGH,1,1,2,0,0
customer,HIGH,1,1,4,0,0
customer,HIGH,1,1,3,1,0
moderator,LOW,1,1,5,0,0
customer,MEDIUM,1,1,4,0,0
moderator,MEDIUM,1,1,2,0,0
customer,LOW,1,1,2,0,0
customer,HIGH,1,1,5,0,0
customer,HIGH,1,1,3,0,0
customer,LOW,1,1,8,0,0
customer,HIGH,1,1,3,3,0
customer,LOW,1,1,3,0,0
customer,LOW,1,1,0,0,0
moderator,MEDIUM,1,0,3,0,0
admin,LOW,1,1,5,0,0
customer,LOW,1,1,1,0,0
moderator,LOW,1,0,5,0,0
customer,LOW,1,1,3,0,0
customer,MEDIUM,1,1,5,0,0
customer,HIGH,1,1,3,0,0
customer,LOW,0,1,49,0,2
admin,MEDIUM,1,0,2,0,0
admin,LOW,1,0,2,0,0
customer,MEDIUM,0,1,5,0,0
moderator,LOW,1,0,1,0,0
customer,LOW,1,1,3,0,0
customer,LOW,1,1,3,5,2
customer,HIGH,0,1,4,0,0
customer,MEDIUM,1,1,4,0,0
customer,HIGH,1,1,57,0,2
customer,LOW,1,1,5,4,0
customer,LOW,0,1,9,0,1
moderator,MEDIUM,1,0,1,0,0
customer,LOW,1,1,2,0,0
customer,LOW,1,1,6,0,0
moderator,LOW,0,0,3,0,0
customer,LOW,1,1,1,0,0
customer,MEDIUM,1,1,2,0,0
customer,HIGH,1,1,1,0,0
moderator,MEDIUM,1,0,1,0,0
customer,LOW,1,1,4,0,0
customer,LOW,0,1,2,3,0
customer,HIGH,1,1,4,0,0
moderator,MEDIUM,0,0,7,0,1
customer,MEDIUM,1,1,1,3,0
admin,MEDIUM,1,0,3,0,0
customer,LOW,1,1,5,0,0
admin,LOW,1,0,3,0,0
customer,LOW,0,1,2,6,2
customer,LOW,1,1,3,8,2
customer,MEDIUM,1,1,4,0,0
customer,LOW,1,1,1,2,0
customer,LOW,1,1,8,0,1
customer,LOW,0,1,2,0,0
moderator,MEDIUM,0,0,4,0,1
customer,LOW,1,1,8,0,0
customer,MEDIUM,0,1,7,0,0
customer,MEDIUM,1,1,2,1,0
moderator,LOW,1,0,60,0,2
customer,LOW,1,1,1,0,0
customer,MEDIUM,1,1,2,0,0
customer,MEDIUM,1,1,3,2,0
customer,LOW,1,1,4,0,0
customer,LOW,1,1,2,0,0
customer,MEDIUM,0,1,2,0,0
moderator,LOW,1,0,7,0,0
customer,LOW,0,1,6,0,0
customer,HIGH,1,1,3,0,0
moderator,MEDIUM,1,0,5,0,0
customer,LOW,1,1,5,0,0
customer,MEDIUM,1,1,5,0,2
moderator,LOW,1,0,6,0,0
moderator,LOW,1,0,5,0,0
customer,MEDIUM,0,1,5,0,0
customer,LOW,1,1,2,0,0
customer,LOW,1,1,5,2,0
customer,MEDIUM,1,1,4,0,0
admin,MEDIUM,0,0,5,0,0
customer,LOW,0,1,32,0,2
customer,MEDIUM,1,1,6,0,0
customer,LOW,1,1,5,0,0
customer,LOW,1,1,9,0,1
customer,LOW,1,1,3,0,0
customer,LOW,1,1,3,0,0
customer,LOW,1,1,4,0,0
moderator,LOW,1,1,4,0,0
customer,HIGH,1,1,2,0,0
customer,LOW,1,1,1,0,0
customer,LOW,0,1,3,0,0
customer,HIGH,1,1,2,0,0
customer,LOW,1,1,1,0,0
admin,LOW,1,0,5,0,0
moderator,LOW,1,0,2,0,0
customer,LOW,1,1,36,0,2
customer,LOW,1,1,4,1,0
moderator,MEDIUM,0,0,39,0,2
customer,MEDIUM,1,1,7,0,0
customer,LOW,1,1,3,0,0
customer,LOW,1,1,4,2,0
customer,LOW,0,1,2,0,0
customer,LOW,1,1,3,0,0
customer,MEDIUM,1,1,4,0,0
customer,LOW,0,1,4,0,0
customer,LOW,1,1,4,0,0
customer,MEDIUM,1,1,6,0,0
customer,MEDIUM,1,1,1,0,0
customer,LOW,1,1,3,0,0
customer,LOW,1,1,4,0,0
moderator,HIGH,0,1,3,0,2
customer,LOW,1,1,2,0,0
moderator,LOW,0,0,5,0,0
customer,MEDIUM,1,1,3,0,0
customer,LOW,1,1,3,0,0
customer,LOW,1,1,8,0,0
customer,LOW,1,1,4,0,0
customer,MEDIUM,0,1,2,0,0
customer,LOW,1,1,3,0,0
moderator,LOW,1,0,1,0,0
customer,MEDIUM,1,1,5,0,0
customer,LOW,1,1,6,0,0
moderator,MEDIUM,0,1,3,0,1
customer,MEDIUM,1,1,4,0,0
moderator,MEDIUM,1,0,4,0,0
customer,LOW,1,1,2,0,0
customer,MEDIUM,1,0,6,0,2
customer,LOW,0,1,5,0,0
moderator,MEDIUM,0,0,3,4,1
customer,MEDIUM,1,1,7,0,0
customer,LOW,0,1,3,0,0
customer,MEDIUM,0,1,3,0,0
customer,LOW,1,1,2,0,0
customer,LOW,1,1,7,3,0
customer,MEDIUM,0,1,2,0,1
admin,MEDIUM,1,0,25,0,1
customer,MEDIUM,1,1,3,0,0
moderator,MEDIUM,1,0,7,0,0
customer,MEDIUM,1,1,1,0,0
customer,LOW,1,1,3,0,0
customer,MEDIUM,1,1,7,0,0
moderator,MEDIUM,1,0,3,0,0
moderator,MEDIUM,1,0,4,0,0
customer,MEDIUM,1,1,2,0,0
customer,MEDIUM,1,1,6,0,0
customer,LOW,1,1,9,1,1
customer,LOW,1,1,2,0,0
customer,LOW,1,1,4,0,0
customer,LOW,1,1,8,0,0
customer,LOW,1,1,4,0,0
moderator,LOW,1,0,5,0,0
customer,MEDIUM,1,1,3,0,0
moderator,MEDIUM,1,0,5,0,0
moderator,LOW,0,0,5,0,0
customer,LOW,1,1,6,0,0
customer,MEDIUM,1,1,2,0,0
customer,LOW,1,1,2,0,0
customer,MEDIUM,1,1,2,0,0
customer,HIGH,1,1,1,2,0
customer,LOW,0,1,2,0,0
customer,LOW,1,1,4,0,0
customer,LOW,0,1,6,1,0
customer,MEDIUM,1,1,2,0,0
customer,HIGH,1,1,59,0,2
customer,LOW,0,1,3,0,0
customer,LOW,1,1,4,0,0
customer,LOW,1,1,3,0,0
customer,HIGH,1,1,3,0,0
admin,LOW,1,1,7,0,0
moderator,MEDIUM,1,0,3,0,0
moderator,MEDIUM,0,0,0,0,1
customer,HIGH,1,1,1,0,0
customer,HIGH,1,1,44,0,2
customer,HIGH,0,1,6,5,2
customer,MEDIUM,1,1,28,0,2
customer,MEDIUM,1,1,4,0,0
customer,LOW,1,1,3,0,0
customer,LOW,1,1,3,0,0
customer,LOW,1,1,4,0,0
admin,MEDIUM,1,0,1,1,0
customer,LOW,1,1,0,0,0
customer,MEDIUM,1,1,2,0,0
customer,LOW,1,1,2,5,2
customer,LOW,0,1,48,0,2
customer,LOW,1,1,3,0,0
customer,LOW,1,1,5,0,0
customer,MEDIUM,0,1,1,4,0
customer,HIGH,0,1,4,0,0
customer,MEDIUM,1,1,2,0,0
moderator,MEDIUM,0,1,7,2,1
moderator,LOW,1,0,3,0,0
customer,MEDIUM,1,1,4,0,0
admin,MEDIUM,0,1,7,0,0
customer,MEDIUM,1,1,4,8,2
moderator,MEDIUM,1,0,43,3,2
moderator,HIGH,0,1,2,7,2
customer,LOW,1,1,5,0,0
customer,LOW,1,1,1,0,0
customer,LOW,1,1,5,0,0
admin,LOW,1,0,1,2,0
moderator,MEDIUM,1,0,3,0,1
customer,LOW,1,1,2,0,0
customer,MEDIUM,0,1,2,0,0
moderator,LOW,0,1,4,0,0
customer,MEDIUM,1,1,7,0,0
moderator,LOW,1,1,7,0,0
customer,MEDIUM,1,1,4,0,0
customer,LOW,1,1,3,0,0
customer,MEDIUM,1,1,4,0,0
customer,LOW,1,1,3,0,0
customer,MEDIUM,1,1,2,0,0
customer,LOW,1,1,5,0,0
customer,MEDIUM,0,1,4,0,0
moderator,HIGH,1,0,2,0,2
moderator,MEDIUM,1,0,7,0,0
customer,MEDIUM,1,1,5,0,0
customer,MEDIUM,0,1,1,2,0
customer,LOW,1,1,1,0,0
admin,LOW,1,0,4,0,0
moderator,LOW,1,0,2,0,0
customer,LOW,1,1,4,0,0
customer,HIGH,1,1,7,0,0
customer,LOW,1,1,1,0,0
customer,LOW,1,1,5,0,0
customer,LOW,1,1,2,0,0
customer,MEDIUM,1,1,29,5,1
customer,LOW,1,1,15,0,1
customer,LOW,1,1,1,0,0
customer,LOW,1,1,0,0,0
customer,LOW,0,1,2,0,0
customer,LOW,1,1,3,0,0
customer,LOW,1,1,7,0,0
moderator,HIGH,1,0,15,1,2
moderator,MEDIUM,0,0,1,0,0
customer,LOW,0,1,1,0,0
customer,LOW,1,1,53,0,1
customer,LOW,1,1,0,3,0
moderator,MEDIUM,1,0,0,0,0
customer,MEDIUM,0,1,48,0,2
customer,LOW,1,1,9,1,1
admin,LOW,1,0,52,0,1
customer,MEDIUM,1,1,5,0,0
customer,MEDIUM,1,1,4,0,0
customer,LOW,1,1,2,0,0
moderator,LOW,1,0,3,0,0
customer,LOW,1,0,1,0,1
customer,LOW,1,1,3,0,0
customer,LOW,1,1,5,0,0
customer,MEDIUM,1,1,7,0,0
customer,LOW,0,1,4,0,0
customer,MEDIUM,1,1,3,0,0
customer,LOW,0,1,3,0,0
customer,LOW,1,1,5,0,0
customer,MEDIUM,0,1,4,0,0
customer,LOW,0,1,5,0,0
customer,MEDIUM,1,1,2,0,0
customer,MEDIUM,1,1,4,2,0
customer,LOW,1,1,2,0,0
admin,LOW,1,0,8,3,1
customer,LOW,0,1,3,0,0
customer,MEDIUM,1,1,6,0,0
customer,LOW,1,1,1,0,0
customer,MEDIUM,1,1,5,0,0
customer,LOW,0,1,4,0,0
customer,LOW,0,1,4,6,2
customer,LOW,1,1,4,0,0
moderator,LOW,1,0,2,0,0
moderator,LOW,1,0,8,0,0
customer,LOW,1,1,2,0,0
customer,LOW,1,1,2,4,0
admin,LOW,0,0,0,0,0
customer,LOW,1,1,2,0,0
customer,LOW,1,1,3,0,0
moderator,LOW,1,0,3,0,0
customer,LOW,1,1,4,0,0
customer,LOW,1,1,5,0,0
admin,LOW,1,0,1,0,0
customer,LOW,1,1,2,6,2
customer,LOW,1,0,2,0,1
customer,MEDIUM,1,1,3,0,0
customer,HIGH,0,1,4,0,0
customer,LOW,1,1,6,0,0
customer,LOW,0,1,4,0,0
customer,HIGH,1,1,7,0,0
customer,LOW,1,1,5,0,0
customer,MEDIUM,1,1,2,0,0
moderator,MEDIUM,1,0,1,0,0
moderator,MEDIUM,1,0,4,0,0
customer,LOW,1,1,3,0,0
customer,HIGH,0,1,4,0,0
customer,MEDIUM,1,1,6,0,0
customer,LOW,1,1,4,0,0
customer,LOW,1,1,4,0,0
customer,LOW,0,1,4,0,0
moderator,LOW,1,0,5,0,0
customer,MEDIUM,1,1,7,0,0
moderator,MEDIUM,0,0,13,3,1
customer,LOW,0,1,3,0,0
customer,LOW,1,1,6,0,0
moderator,HIGH,1,0,2,0,2
customer,LOW,1,1,3,0,0
admin,LOW,1,0,4,0,2
customer,LOW,1,1,8,0,0
moderator,HIGH,1,0,58,0,2
admin,LOW,1,0,4,0,0
customer,MEDIUM,1,1,3,0,0
customer,MEDIUM,1,1,7,0,0
customer,LOW,1,1,0,0,0
customer,MEDIUM,1,1,2,0,0
customer,LOW,1,1,3,0,0
customer,MEDIUM,0,1,2,0,0
moderator,MEDIUM,1,0,4,5,2
customer,LOW,1,1,7,0,0
customer,MEDIUM,1,1,4,0,0
customer,LOW,1,1,4,0,0
customer,MEDIUM,1,1,5,0,0
customer,HIGH,1,1,5,0,0
customer,LOW,0,1,3,0,0
customer,LOW,1,1,6,0,0
moderator,MEDIUM,1,0,6,0,0
customer,LOW,1,1,2,0,0
customer,MEDIUM,1,1,3,0,0
customer,HIGH,1,1,3,0,0
customer,HIGH,1,1,6,0,0
moderator,LOW,1,0,5,0,0
customer,LOW,1,1,8,0,0
customer,MEDIUM,1,1,3,0,0
customer,LOW,1,1,5,0,0
admin,LOW,1,0,5,0,0
moderator,LOW,0,1,2,0,0
customer,LOW,1,1,1,0,0
customer,LOW,1,1,8,0,0
moderator,LOW,1,0,4,0,0
moderator,LOW,1,0,9,0,0
customer,MEDIUM,1,1,1,0,0
customer,MEDIUM,1,1,4,0,0
customer,LOW,1,1,5,1,0
customer,MEDIUM,1,1,4,0,0
customer,LOW,1,1,7,0,0
moderator,LOW,0,0,1,3,0
customer,MEDIUM,1,1,4,0,0
customer,LOW,1,1,6,0,0
admin,LOW,1,0,6,0,0
admin,MEDIUM,1,1,4,0,0
customer,LOW,0,1,3,0,0
customer,LOW,1,1,4,2,0
moderator,LOW,1,0,3,0,0
moderator,LOW,1,0,3,1,0
customer,LOW,1,1,4,0,0
customer,LOW,1,1,4,0,0
customer,LOW,1,1,5,0,0
customer,LOW,1,1,6,0,0
customer,MEDIUM,1,0,44,0,2
moderator,LOW,0,0,2,0,0
customer,MEDIUM,1,1,4,0,0
customer,LOW,1,1,3,0,0
customer,LOW,1,0,7,5,2
customer,MEDIUM,0,1,1,0,0
moderator,MEDIUM,0,0,3,0,1
customer,LOW,0,1,4,0,0
customer,LOW,1,1,5,0,0
customer,MEDIUM,1,1,9,0,1
moderator,LOW,1,0,1,0,0
customer,LOW,1,1,3,0,0
customer,LOW,1,1,3,0,0
customer,LOW,1,0,2,0,1
moderator,MEDIUM,1,1,4,0,0
customer,LOW,1,1,4,0,0
moderator,LOW,1,0,2,0,0
customer,LOW,1,1,5,0,0
moderator,MEDIUM,0,1,1,0,1
customer,MEDIUM,1,1,3,0,0
customer,MEDIUM,1,1,6,0,0
customer,MEDIUM,1,1,5,0,0
moderator,MEDIUM,1,0,9,0,0
moderator,LOW,1,0,5,0,0
customer,HIGH,1,1,3,0,0
customer,LOW,1,1,4,0,0
moderator,LOW,1,0,7,0,0
moderator,MEDIUM,1,0,6,0,0
customer,LOW,1,1,4,0,0
customer,LOW,1,1,6,0,0
admin,LOW,0,0,2,0,0
customer,LOW,1,1,4,0,0
customer,LOW,1,1,3,0,0
moderator,LOW,1,0,8,0,0
customer,LOW,1,1,3,0,0
customer,LOW,1,1,15,0,1
customer,MEDIUM,1,1,5,1,0
customer,LOW,1,1,4,0,0
customer,HIGH,0,1,2,0,0
customer,HIGH,1,1,5,0,0
customer,MEDIUM,0,1,3,0,0
customer,MEDIUM,1,1,1,0,0
customer,LOW,1,1,39,0,2
customer,MEDIUM,1,1,4,0,0
customer,LOW,1,1,4,0,0
customer,HIGH,1,1,29,0,2
moderator,LOW,1,0,4,0,0
moderator,LOW,1,0,4,0,0
customer,HIGH,1,1,4,0,0
customer,LOW,1,1,7,0,0
admin,MEDIUM,1,0,7,0,0
customer,HIGH,1,1,4,0,0
customer,LOW,0,1,4,0,0
customer,LOW,1,1,4,0,0
customer,MEDIUM,1,1,1,0,0
customer,LOW,1,1,2,0,0
customer,MEDIUM,1,1,6,0,0
customer,MEDIUM,1,1,54,0,2
customer,LOW,1,1,2,0,0
moderator,LOW,1,0,2,0,0
customer,LOW,1,1,5,0,0
customer,LOW,1,0,41,0,2
customer,MEDIUM,1,1,3,0,0
customer,LOW,1,1,3,0,0
moderator,LOW,1,0,6,0,0
customer,MEDIUM,1,1,2,0,0
admin,LOW,1,0,6,0,0
customer,LOW,1,1,3,0,0
moderator,LOW,1,0,5,0,0
customer,LOW,1,1,5,0,0
customer,LOW,1,1,6,0,0
customer,LOW,1,1,4,0,0
customer,MEDIUM,0,1,4,0,0
customer,HIGH,1,1,3,0,0
customer,MEDIUM,1,1,4,0,0
customer,MEDIUM,1,0,2,0,2
customer,LOW,1,1,5,5,2
customer,LOW,1,1,6,8,2
admin,MEDIUM,0,0,22,0,1
customer,HIGH,1,1,3,0,0
customer,LOW,1,1,2,3,0
customer,LOW,1,1,5,0,0
customer,HIGH,1,1,4,0,0
customer,MEDIUM,1,0,3,1,2
customer,MEDIUM,1,0,5,2,2
moderator,MEDIUM,1,0,6,0,0
moderator,LOW,1,1,5,0,0
customer,LOW,1,1,4,0,0
admin,LOW,1,0,28,0,1
customer,LOW,1,1,4,0,0
customer,LOW,1,1,1,0,0
customer,LOW,0,1,6,0,0
customer,LOW,1,1,2,0,0
moderator,LOW,1,1,34,0,1
customer,MEDIUM,1,1,4,0,0
customer,LOW,1,0,8,0,1
customer,LOW,1,1,4,0,0
moderator,HIGH,1,0,1,7,2
customer,LOW,1,1,3,0,0
moderator,HIGH,0,0,8,0,2
admin,LOW,1,0,5,0,0
customer,LOW,1,1,4,0,0
customer,LOW,0,1,5,0,0
customer,LOW,0,1,2,0,0
customer,LOW,1,1,3,0,0
customer,LOW,1,1,4,0,0
admin,MEDIUM,1,1,56,7,2
customer,MEDIUM,1,1,3,0,0
customer,MEDIUM,1,0,4,0,2
customer,LOW,1,1,4,0,0
customer,LOW,1,0,4,0,1
customer,LOW,1,1,4,0,0
moderator,LOW,1,1,4,0,0
customer,LOW,0,1,3,0,0
customer,MEDIUM,0,1,3,0,0
customer,MEDIUM,1,1,5,0,0
moderator,LOW,1,0,4,0,0
customer,MEDIUM,0,1,3,0,0
customer,HIGH,1,1,5,0,0
customer,MEDIUM,0,1,1,0,0
customer,MEDIUM,1,1,3,0,0
customer,LOW,1,1,3,0,0
customer,LOW,1,1,3,1,0
customer,LOW,1,1,5,0,0
customer,MEDIUM,1,1,63,0,2
customer,MEDIUM,1,1,1,0,0
moderator,LOW,0,0,5,0,0
customer,LOW,1,1,5,0,0
customer,MEDIUM,1,1,4,0,0
moderator,HIGH,1,0,2,0,2
customer,LOW,1,1,0,0,0
customer,LOW,1,1,8,0,0
customer,MEDIUM,0,0,6,0,1
customer,LOW,0,1,3,1,0
moderator,LOW,1,0,3,3,0
customer,LOW,1,1,55,5,2
moderator,LOW,1,0,4,0,0
customer,LOW,1,1,2,0,0
moderator,HIGH,1,0,7,0,2
moderator,LOW,1,0,6,0,0
admin,MEDIUM,1,0,3,0,1
customer,MEDIUM,1,1,5,0,0
customer,LOW,1,1,10,0,1
customer,LOW,0,1,3,0,1
customer,HIGH,0,1,4,0,0
customer,MEDIUM,1,1,5,0,0
customer,MEDIUM,1,1,2,0,0
customer,LOW,1,1,3,0,0
customer,LOW,1,1,6,7,2
moderator,LOW,1,1,1,0,0
customer,LOW,1,1,6,0,0
customer,MEDIUM,1,1,2,0,0
customer,LOW,1,0,3,5,2
moderator,LOW,0,0,0,0,0
customer,MEDIUM,1,1,4,0,0
customer,MEDIUM,0,1,1,1,0
moderator,MEDIUM,1,0,2,0,0
customer,MEDIUM,1,1,7,0,0
moderator,LOW,1,1,2,0,0
customer,HIGH,1,1,4,3,0
customer,LOW,0,1,4,0,0
customer,MEDIUM,1,1,4,0,0
customer,LOW,1,1,5,0,0
customer,LOW,1,1,3,0,0
customer,MEDIUM,1,1,2,0,0
customer,LOW,1,1,1,0,0
customer,LOW,1,1,3,1,0
customer,MEDIUM,1,1,6,0,0
customer,MEDIUM,1,1,4,0,0
customer,LOW,1,1,3,0,0
customer,LOW,0,1,1,1,0
customer,LOW,0,1,3,0,0
customer,HIGH,1,1,1,0,0
customer,MEDIUM,1,1,6,0,0
customer,LOW,1,1,2,0,0
moderator,MEDIUM,1,0,3,0,0
moderator,MEDIUM,1,0,3,0,0
customer,MEDIUM,1,1,5,1,0
customer,LOW,1,1,5,0,0
customer,LOW,1,1,4,0,0
customer,LOW,1,1,3,0,0
customer,LOW,1,1,2,0,0
moderator,MEDIUM,1,0,3,0,0
moderator,LOW,1,0,2,0,0
customer,MEDIUM,0,1,1,0,0
customer,LOW,1,1,4,0,0
customer,LOW,1,1,0,0,0
customer,LOW,1,1,4,0,0
customer,LOW,1,1,31,2,0
customer,LOW,1,1,2,0,0
customer,LOW,1,1,6,0,0
customer,MEDIUM,1,1,4,0,0
customer,LOW,1,1,4,0,1
customer,LOW,1,1,4,0,0
customer,MEDIUM,1,1,3,0,0
customer,LOW,1,1,6,0,0
moderator,LOW,1,0,6,0,0
customer,MEDIUM,1,1,4,0,0
customer,MEDIUM,1,1,8,0,0
customer,HIGH,1,1,3,1,0
customer,MEDIUM,1,1,5,0,0
customer,LOW,1,1,3,0,0
moderator,HIGH,1,0,4,0,2
customer,MEDIUM,1,1,2,0,0
customer,LOW,1,1,2,0,0
customer,LOW,1,1,5,1,0
moderator,LOW,0,0,7,0,0
customer,LOW,1,1,4,0,0
customer,MEDIUM,0,1,2,0,0
admin,LOW,1,0,1,0,0
customer,HIGH,1,1,2,0,0
moderator,LOW,1,0,2,0,0
customer,LOW,1,1,4,0,0
customer,LOW,1,1,4,0,0
customer,LOW,1,1,3,0,0
admin,LOW,1,0,4,0,0
customer,HIGH,1,1,3,2,0
customer,LOW,1,1,3,0,0
customer,MEDIUM,0,1,1,0,0
customer,LOW,0,1,3,0,0
moderator,LOW,1,0,4,0,0
customer,LOW,1,1,1,0,0
customer,MEDIUM,1,1,4,1,0
customer,MEDIUM,1,1,3,0,0
admin,LOW,1,0,3,0,0
customer,LOW,1,1,6,0,0
customer,LOW,1,1,4,0,0
customer,LOW,1,1,5,8,2
customer,MEDIUM,1,1,3,0,0
customer,LOW,0,1,5,0,0
moderator,HIGH,1,0,6,1,2
customer,LOW,1,1,3,0,0
customer,LOW,1,1,1,2,0
customer,MEDIUM,0,1,4,0,0
customer,LOW,1,1,3,0,0
moderator,HIGH,0,0,2,8,2
moderator,LOW,0,0,3,0,0
customer,MEDIUM,1,1,5,4,0
customer,HIGH,1,1,3,0,0
admin,LOW,1,0,5,0,0
moderator,MEDIUM,1,1,8,0,0
customer,MEDIUM,1,1,6,0,0
moderator,LOW,0,0,39,0,2
customer,LOW,1,1,1,0,0
customer,LOW,1,1,5,0,0
admin,MEDIUM,1,0,6,0,0
customer,LOW,1,0,2,0,1
moderator,LOW,1,0,4,0,0
moderator,MEDIUM,1,0,4,0,0
customer,LOW,1,1,3,0,0
customer,LOW,1,1,8,0,0
customer,MEDIUM,0,1,1,0,0
customer,MEDIUM,1,1,4,0,0
customer,MEDIUM,0,1,1,0,0
customer,LOW,1,1,4,0,0
customer,LOW,1,1,4,0,0
customer,LOW,1,0,33,0,2
customer,LOW,1,1,2,0,0
customer,MEDIUM,1,0,1,0,2
customer,MEDIUM,1,1,3,0,0
admin,MEDIUM,1,1,4,8,2
customer,LOW,1,1,4,0,0
admin,HIGH,0,0,5,4,1
customer,HIGH,1,1,2,0,0
customer,LOW,1,1,1,0,0
admin,LOW,1,0,2,0,0
customer,MEDIUM,1,1,4,0,0
admin,LOW,1,1,6,0,0
customer,LOW,1,1,1,0,0
customer,HIGH,1,1,3,0,0
customer,LOW,1,1,2,1,0
customer,LOW,1,1,1,0,0
customer,LOW,0,1,3,0,0
moderator,MEDIUM,1,0,4,0,0
customer,LOW,1,1,4,0,0
customer,MEDIUM,0,1,5,0,0
customer,LOW,0,1,2,0,0
customer,LOW,1,1,3,0,0
customer,LOW,1,1,5,0,0
customer,LOW,1,1,4,0,0
moderator,MEDIUM,0,0,5,5,2
customer,LOW,0,1,4,0,0
customer,MEDIUM,1,1,5,0,0
moderator,LOW,1,1,1,0,1
admin,MEDIUM,1,0,1,0,0
customer,LOW,1,1,5,0,0
customer,MEDIUM,1,1,7,0,0
customer,LOW,0,1,5,0,0
customer,LOW,0,1,1,0,0
customer,LOW,1,1,1,1,0
customer,LOW,1,1,3,0,0
customer,MEDIUM,1,1,39,0,2
customer,LOW,1,1,2,0,0
customer,LOW,1,1,1,3,0
moderator,LOW,1,0,3,0,0
customer,LOW,1,0,2,0,1
admin,LOW,1,0,41,0,1
customer,LOW,1,1,4,0,0
admin,LOW,1,0,4,7,2
moderator,HIGH,1,0,4,0,2
moderator,LOW,1,0,2,1,0
customer,LOW,1,1,5,0,0
customer,MEDIUM,1,1,3,0,0
customer,LOW,0,0,5,0,1
customer,LOW,1,0,6,0,0
customer,LOW,1,1,4,0,0
customer,LOW,1,1,46,0,2
moderator,HIGH,1,0,6,0,1
customer,LOW,1,1,6,0,0
customer,MEDIUM,1,1,0,1,0
customer,MEDIUM,1,1,3,0,0
customer,LOW,1,1,2,0,0
moderator,LOW,0,0,7,0,0
customer,LOW,1,1,6,0,0
customer,MEDIUM,0,1,6,0,0
customer,LOW,0,1,4,3,0
customer,LOW,1,1,1,0,0
customer,LOW,1,1,4,0,0
customer,LOW,0,1,1,0,0
customer,HIGH,1,1,6,0,0
customer,LOW,1,1,4,0,0
customer,MEDIUM,1,1,2,0,0
customer,MEDIUM,1,1,6,3,0
customer,MEDIUM,1,1,2,0,0
moderator,MEDIUM,0,0,5,0,1
admin,LOW,0,1,3,4,1
customer,LOW,0,1,26,0,2
customer,MEDIUM,1,1,2,0,0
customer,LOW,1,1,2,0,0
customer,LOW,1,1,4,0,0
customer,LOW,1,1,7,0,0
customer,LOW,1,1,4,0,0
customer,MEDIUM,1,1,7,0,0
customer,MEDIUM,1,1,6,0,0
customer,LOW,1,1,4,0,0
customer,MEDIUM,1,1,4,3,0
moderator,LOW,1,0,4,0,0
moderator,LOW,1,0,11,0,0
customer,LOW,1,1,6,0,0
customer,MEDIUM,0,1,3,0,0
customer,LOW,1,1,6,0,0
customer,LOW,1,1,5,0,0
customer,HIGH,1,1,6,0,0
customer,MEDIUM,1,1,6,0,0
customer,LOW,1,1,4,0,0
customer,MEDIUM,1,1,2,0,0
customer,MEDIUM,1,1,4,0,0
customer,LOW,1,1,4,1,0
customer,LOW,1,1,4,0,0
admin,MEDIUM,1,0,6,0,0
customer,LOW,0,1,3,0,0
customer,LOW,0,1,8,0,0
customer,LOW,0,1,6,0,0
customer,MEDIUM,1,1,25,0,2
customer,LOW,1,1,5,0,0
customer,HIGH,0,1,5,0,0
admin,MEDIUM,0,0,4,0,0
moderator,LOW,1,0,3,0,0
customer,MEDIUM,1,1,2,0,0
customer,LOW,1,1,4,0,0
moderator,MEDIUM,1,0,8,0,0
customer,MEDIUM,0,1,1,0,0
customer,MEDIUM,1,1,7,0,0
customer,LOW,1,1,64,0,2
customer,LOW,0,1,2,0,0
moderator,HIGH,1,0,2,0,2
customer,LOW,1,1,5,0,0
customer,LOW,0,1,1,0,0
customer,LOW,1,0,3,2,1
customer,LOW,1,1,4,0,0
customer,LOW,0,1,5,0,0
customer,HIGH,1,1,4,0,0
moderator,LOW,1,0,5,0,0
customer,LOW,1,1,3,0,0
moderator,MEDIUM,1,0,6,0,0
customer,HIGH,1,1,3,0,0
customer,MEDIUM,1,1,5,0,0
customer,LOW,1,1,3,0,0
customer,MEDIUM,0,1,1,0,0
customer,HIGH,1,1,4,0,0
customer,LOW,1,1,3,0,0
moderator,LOW,1,0,2,0,0
moderator,MEDIUM,1,0,7,0,0
moderator,MEDIUM,1,0,6,0,0
moderator,LOW,1,0,9,0,0
moderator,LOW,1,0,1,0,0
customer,LOW,0,1,6,0,0
moderator,LOW,0,0,5,0,0
admin,MEDIUM,1,0,3,0,0
customer,LOW,1,1,4,0,0
admin,LOW,1,0,6,0,0
customer,MEDIUM,0,1,5,0,0
customer,LOW,1,1,6,0,0
customer,LOW,1,1,58,0,2
customer,HIGH,1,1,8,0,0
customer,MEDIUM,1,1,7,0,0
customer,LOW,1,1,4,0,0
customer,MEDIUM,1,1,4,1,0
customer,MEDIUM,1,1,4,0,0
customer,LOW,1,1,4,0,0
admin,HIGH,1,0,6,0,0
customer,LOW,0,1,62,0,2
moderator,LOW,0,0,6,0,0
customer,LOW,1,1,4,2,0
admin,MEDIUM,1,0,4,0,0
customer,MEDIUM,1,1,2,0,0
customer,LOW,0,1,7,0,0
moderator,MEDIUM,0,0,5,0,1
customer,LOW,1,1,5,0,0
customer,LOW,1,1,4,0,0
customer,LOW,1,1,6,0,0
moderator,LOW,0,0,4,0,0
customer,LOW,0,1,3,0,0
customer,LOW,1,1,7,3,0
customer,MEDIUM,1,1,6,0,0
moderator,LOW,1,0,2,5,2
customer,MEDIUM,1,1,3,0,0
customer,LOW,0,1,7,0,0
customer,LOW,1,1,1,0,0
customer,MEDIUM,1,1,8,0,0
customer,LOW,0,0,3,0,1
customer,MEDIUM,1,1,3,2,0
customer,LOW,0,1,3,0,0
customer,LOW,0,1,4,1,0
customer,LOW,1,1,3,0,0
customer,HIGH,1,1,7,0,0
customer,LOW,0,1,3,0,0
customer,MEDIUM,0,1,6,1,0
customer,LOW,1,1,1,0,1
customer,MEDIUM,1,1,8,2,0
customer,MEDIUM,0,1,4,0,0
moderator,LOW,0,0,7,1,0
customer,HIGH,1,1,6,0,0
moderator,LOW,0,0,5,0,0
moderator,LOW,1,1,4,0,0
moderator,LOW,1,0,3,1,0
customer,LOW,1,1,4,0,0
moderator,MEDIUM,0,0,6,0,1
customer,HIGH,0,1,4,0,0
customer,LOW,1,1,2,0,0
customer,MEDIUM,1,1,3,0,0
customer,MEDIUM,1,0,3,0,2
moderator,MEDIUM,1,0,3,0,0
customer,MEDIUM,0,1,3,0,0
customer,LOW,1,1,3,0,0
customer,LOW,1,1,6,0,0
moderator,HIGH,0,0,4,0,2
moderator,LOW,1,0,3,0,0
customer,HIGH,1,1,4,0,0
customer,LOW,1,1,3,0,0
moderator,HIGH,1,0,1,0,2
admin,LOW,1,1,5,0,0
moderator,LOW,1,0,7,0,0
customer,LOW,1,1,2,0,0
moderator,MEDIUM,1,0,7,0,0
customer,LOW,0,1,7,0,0
moderator,HIGH,1,0,6,0,2
customer,LOW,0,1,5,2,0
customer,LOW,1,1,8,0,0
customer,LOW,1,1,2,0,0
customer,LOW,0,1,2,0,0
moderator,LOW,1,0,3,0,0
customer,LOW,1,1,25,0,2
customer,MEDIUM,1,1,2,0,0
customer,LOW,1,1,3,0,0
customer,MEDIUM,1,1,3,0,1
admin,MEDIUM,1,0,3,0,0
customer,LOW,1,1,3,0,0
customer,LOW,1,1,4,1,0
moderator,LOW,0,0,5,0,0
customer,LOW,1,1,5,0,0
customer,MEDIUM,1,1,4,0,0
customer,LOW,1,1,4,0,0
customer,LOW,1,1,2,0,0
customer,LOW,1,1,2,0,0
customer,LOW,1,1,3,0,0
customer,HIGH,1,1,4,1,0
customer,MEDIUM,0,1,5,0,0
admin,LOW,0,0,5,3,1
customer,MEDIUM,1,1,4,0,0
moderator,MEDIUM,0,0,1,0,1
customer,LOW,1,1,0,0,0
moderator,LOW,1,1,4,0,0
customer,LOW,1,1,2,0,0
customer,MEDIUM,1,1,7,0,0
admin,LOW,1,0,2,0,0
moderator,HIGH,1,0,3,0,2
customer,LOW,1,1,3,0,1
moderator,LOW,0,0,8,0,0
customer,LOW,1,1,6,0,0
moderator,LOW,1,0,7,0,0
moderator,MEDIUM,1,0,5,0,0
moderator,LOW,0,0,5,0,0
moderator,LOW,1,1,3,0,0
customer,LOW,1,1,3,0,0
customer,MEDIUM,1,1,4,0,0
moderator,HIGH,1,1,26,0,2
customer,LOW,0,1,3,0,0
customer,LOW,1,1,6,0,0
customer,MEDIUM,1,1,7,0,0
customer,LOW,1,1,3,0,0
customer,MEDIUM,1,1,5,0,0
customer,MEDIUM,0,1,5,0,0
customer,MEDIUM,1,1,4,0,0
admin,LOW,0,0,5,0,0
customer,LOW,1,1,5,0,0
customer,MEDIUM,1,1,6,0,0
customer,MEDIUM,1,1,3,0,0
moderator,LOW,1,0,5,0,0
admin,LOW,1,0,3,0,0
customer,LOW,1,1,6,0,0
customer,HIGH,1,1,5,0,0
customer,MEDIUM,1,0,4,0,2
admin,LOW,1,0,39,0,1
moderator,LOW,0,0,3,0,0
customer,LOW,0,1,2,0,0
moderator,LOW,1,0,4,2,0
moderator,LOW,1,1,2,0,0
customer,LOW,1,1,3,3,0
customer,HIGH,1,1,3,0,0
customer,LOW,1,1,5,0,0
customer,LOW,1,1,1,0,0
customer,LOW,1,1,1,0,0
customer,LOW,0,1,2,0,0
customer,LOW,1,1,4,0,0
customer,MEDIUM,1,1,5,0,0
customer,LOW,1,1,2,0,0
customer,LOW,1,1,1,0,0
customer,MEDIUM,1,1,6,0,0
customer,LOW,1,1,6,0,0
customer,HIGH,1,1,2,0,0
customer,LOW,1,1,1,2,0
customer,LOW,1,1,5,0,0
moderator,MEDIUM,1,0,7,0,0
customer,HIGH,1,1,5,0,0
customer,LOW,1,0,3,0,1
admin,MEDIUM,1,0,6,0,0
customer,LOW,1,1,5,0,0
customer,LOW,1,1,4,0,0
customer,MEDIUM,1,1,5,1,0
moderator,MEDIUM,1,0,4,0,0
moderator,LOW,0,0,7,0,0
customer,LOW,1,1,3,0,0
customer,LOW,1,1,6,0,0
customer,LOW,1,1,6,0,0
customer,LOW,0,1,7,0,0
customer,LOW,1,1,2,0,0
customer,LOW,1,1,6,0,0
customer,LOW,1,1,5,0,0
customer,MEDIUM,1,1,4,0,0
customer,LOW,1,1,2,0,0
moderator,MEDIUM,1,1,0,3,0
customer,LOW,1,1,2,0,0
customer,LOW,1,1,2,0,0
customer,LOW,1,0,3,0,1
customer,MEDIUM,1,1,3,0,0
customer,LOW,1,1,1,0,0
moderator,LOW,1,0,3,0,0
customer,HIGH,0,1,7,0,0
moderator,LOW,1,1,6,0,0
customer,HIGH,1,1,6,0,0
customer,LOW,1,1,5,0,0
customer,LOW,1,1,4,0,0
moderator,MEDIUM,1,0,2,0,0
customer,MEDIUM,1,1,8,0,0
customer,LOW,1,1,3,0,0
moderator,HIGH,1,0,5,0,2
customer,LOW,1,1,4,0,0
admin,MEDIUM,0,0,3,0,0
moderator,LOW,1,0,1,0,0
customer,LOW,0,1,4,0,0
customer,HIGH,1,1,4,0,0
customer,LOW,1,1,5,0,0
moderator,MEDIUM,1,0,3,0,0
moderator,LOW,1,0,4,0,0
moderator,LOW,1,0,1,0,0
customer,MEDIUM,1,1,7,0,0
customer,LOW,1,1,5,0,0
customer,LOW,1,1,5,0,0
customer,LOW,1,1,8,0,0
customer,HIGH,1,1,7,0,0
moderator,LOW,1,0,5,0,0
customer,LOW,1,1,4,0,0
customer,MEDIUM,1,1,5,0,0
customer,LOW,1,1,8,0,0
moderator,MEDIUM,1,0,7,0,0
customer,MEDIUM,1,1,8,0,0
customer,MEDIUM,1,1,5,0,0
moderator,LOW,1,0,4,2,0
customer,HIGH,1,1,3,0,0
moderator,MEDIUM,1,0,2,0,0
moderator,MEDIUM,1,0,1,0,0
customer,LOW,0,1,6,0,0
customer,LOW,1,1,3,0,0
customer,MEDIUM,1,1,3,0,0
customer,MEDIUM,1,1,5,0,0
moderator,LOW,0,0,8,0,0
customer,LOW,1,1,4,0,0
customer,MEDIUM,1,1,4,0,0
customer,LOW,1,1,4,0,0
customer,MEDIUM,1,1,8,3,0
customer,HIGH,1,1,3,0,0
customer,HIGH,1,1,6,0,0
customer,MEDIUM,1,1,53,0,1
moderator,LOW,1,0,7,1,0
customer,MEDIUM,1,1,1,0,0
customer,LOW,1,0,3,0,1
customer,LOW,0,1,3,0,0
customer,LOW,1,1,8,0,0
customer,HIGH,1,1,5,0,0
customer,LOW,0,1,4,0,0
customer,LOW,0,1,5,0,0
customer,HIGH,1,1,24,0,2
moderator,LOW,0,0,4,0,0
customer,MEDIUM,0,1,3,0,0
moderator,LOW,1,1,2,0,1
customer,LOW,1,1,5,0,0
moderator,LOW,1,0,4,2,0
customer,LOW,1,1,7,0,0
customer,MEDIUM,0,1,0,0,0
customer,LOW,1,1,4,0,0
moderator,MEDIUM,1,1,3,0,0
customer,LOW,0,1,6,1,0
customer,LOW,1,1,45,0,2
customer,HIGH,1,1,5,0,0
admin,LOW,0,0,21,0,1
admin,LOW,1,0,2,0,0
moderator,LOW,0,0,5,1,0
customer,LOW,1,1,5,0,0
admin,LOW,1,0,4,3,1
moderator,MEDIUM,1,0,3,0,0
customer,MEDIUM,1,1,4,0,0
customer,LOW,1,1,3,0,0
customer,MEDIUM,1,1,7,1,0
customer,HIGH,1,1,18,0,2
admin,LOW,1,0,5,0,0
moderator,MEDIUM,1,0,1,0,0
customer,LOW,1,1,3,0,0
customer,LOW,1,1,38,0,2
customer,LOW,1,1,3,0,0
customer,MEDIUM,1,1,56,0,2
moderator,MEDIUM,1,0,4,0,0
customer,LOW,1,1,2,0,0
moderator,LOW,0,0,4,0,0
customer,LOW,1,1,2,3,0
customer,LOW,1,1,5,0,0
customer,MEDIUM,0,1,2,0,0
customer,LOW,1,1,2,0,0
customer,LOW,1,1,6,0,0
moderator,LOW,1,0,0,0,0
moderator,LOW,1,0,7,0,0
customer,LOW,1,1,6,0,0
customer,MEDIUM,1,1,3,0,0
customer,MEDIUM,0,1,3,0,0
customer,LOW,1,1,2,0,0
customer,HIGH,1,1,5,0,0
admin,LOW,1,0,2,0,0
customer,LOW,1,1,7,0,0
customer,MEDIUM,0,1,6,0,0
customer,LOW,1,1,3,0,0
customer,HIGH,1,1,6,0,0
customer,MEDIUM,1,1,3,0,0
customer,MEDIUM,1,0,25,0,2
customer,MEDIUM,0,1,5,0,0
customer,LOW,1,1,2,0,0
moderator,LOW,0,0,2,0,0
moderator,LOW,1,0,3,0,0
customer,LOW,0,1,7,0,0
customer,LOW,1,1,5,0,0
customer,HIGH,1,1,7,0,0
moderator,MEDIUM,1,0,1,0,0
customer,MEDIUM,1,1,7,0,0
customer,LOW,1,0,6,0,1
customer,LOW,0,1,5,0,0
customer,LOW,1,1,4,0,0
customer,MEDIUM,0,1,1,0,0
customer,LOW,0,0,5,0,1
customer,LOW,1,1,4,0,0
customer,LOW,0,1,5,0,0
customer,LOW,1,1,3,1,0
customer,MEDIUM,1,1,1,0,0
admin,LOW,0,0,6,0,0
customer,HIGH,1,1,6,0,0
customer,LOW,1,1,53,0,2
customer,MEDIUM,0,1,4,0,0
customer,MEDIUM,1,1,5,0,0
customer,LOW,1,1,52,0,2
admin,HIGH,1,0,6,0,0
customer,LOW,1,1,4,0,0
customer,LOW,1,1,6,0,0
moderator,LOW,1,0,1,0,0
moderator,MEDIUM,1,0,3,0,0
moderator,MEDIUM,1,0,4,0,0
moderator,HIGH,1,1,3,0,2
customer,LOW,1,1,5,0,0
moderator,MEDIUM,1,0,4,0,0
customer,LOW,1,1,4,4,0
customer,LOW,1,1,4,7,2
customer,LOW,1,1,10,0,1
customer,MEDIUM,1,1,3,0,0
customer,HIGH,1,1,4,0,0
customer,MEDIUM,1,0,4,0,2
customer,MEDIUM,1,1,4,0,0
customer,LOW,1,1,2,0,0
customer,LOW,1,0,8,0,1
customer,LOW,1,1,5,0,0
customer,MEDIUM,1,1,5,0,0
moderator,LOW,1,0,3,0,0
moderator,LOW,1,0,4,0,0
customer,MEDIUM,0,1,4,0,0
customer,LOW,0,1,3,0,0
customer,LOW,1,0,7,5,2
customer,LOW,1,1,2,0,0
customer,MEDIUM,1,1,2,0,0
customer,HIGH,1,1,5,0,0
moderator,LOW,1,0,4,0,0
customer,LOW,0,1,1,0,0
customer,MEDIUM,1,1,6,0,0
customer,LOW,1,1,5,0,0
customer,LOW,1,1,4,0,0
customer,HIGH,1,1,44,0,2
customer,LOW,1,1,2,0,0
customer,LOW,1,1,1,0,0
customer,MEDIUM,0,1,11,0,1
customer,LOW,1,1,4,0,0
customer,LOW,1,0,4,0,1
customer,LOW,0,1,7,0,0
customer,MEDIUM,1,1,3,0,0
moderator,HIGH,1,0,7,0,2
customer,MEDIUM,1,1,3,0,0
customer,LOW,1,1,2,0,0
moderator,MEDIUM,1,0,8,0,0
customer,MEDIUM,1,1,3,0,0
customer,MEDIUM,1,1,3,0,0
customer,LOW,0,1,6,0,0
customer,MEDIUM,1,1,0,0,0
customer,LOW,1,1,18,0,2
customer,MEDIUM,1,1,4,0,0
moderator,MEDIUM,1,0,5,0,0
customer,LOW,0,1,5,0,0
moderator,HIGH,1,0,6,0,2
customer,LOW,1,1,3,0,0
moderator,MEDIUM,1,0,4,0,0
customer,MEDIUM,1,1,1,0,0
moderator,MEDIUM,1,0,5,0,0
customer,LOW,1,1,5,0,0
customer,LOW,1,1,5,0,0
customer,LOW,1,1,5,0,0
customer,LOW,1,1,2,0,0
customer,LOW,1,1,4,0,0
admin,LOW,1,1,5,0,0
customer,LOW,1,1,7,0,0
customer,LOW,0,1,5,0,0
customer,MEDIUM,1,1,3,0,0
customer,MEDIUM,1,1,3,0,0
customer,LOW,1,1,4,0,0
customer,LOW,1,1,48,0,2
customer,LOW,1,1,7,0,0
customer,HIGH,1,1,3,0,0
customer,LOW,1,1,4,0,0
customer,HIGH,1,1,2,0,0
customer,LOW,1,1,5,0,0
customer,LOW,0,1,5,0,0
customer,LOW,1,1,6,0,0
customer,HIGH,1,1,5,0,0
customer,HIGH,0,1,8,1,0
moderator,MEDIUM,1,0,7,0,0
customer,MEDIUM,1,1,3,0,0
moderator,LOW,1,0,7,0,0
moderator,LOW,1,0,53,0,2
customer,LOW,1,1,6,0,0
customer,MEDIUM,1,1,5,0,0
customer,LOW,1,1,4,0,0
customer,HIGH,1,1,7,0,0
customer,LOW,1,1,4,0,0
admin,MEDIUM,1,0,2,0,0
customer,LOW,1,1,3,0,0
admin,MEDIUM,1,0,4,0,0
customer,LOW,1,1,6,1,0
customer,MEDIUM,1,1,3,0,0
customer,LOW,1,1,4,0,0
customer,MEDIUM,1,1,0,0,0
customer,LOW,1,1,1,0,0
customer,LOW,1,1,8,0,0
customer,MEDIUM,1,1,1,0,0
moderator,LOW,0,0,5,0,0
customer,LOW,0,1,7,0,0
customer,LOW,1,1,57,0,2
customer,LOW,1,1,2,0,0
customer,MEDIUM,0,1,7,0,0
customer,MEDIUM,0,1,0,5,2
moderator,MEDIUM,1,1,1,0,0
customer,LOW,1,1,47,1,2
admin,LOW,1,0,3,0,0
customer,LOW,1,1,4,0,0
customer,LOW,1,1,5,0,0
moderator,LOW,1,0,5,0,0
customer,LOW,1,1,2,0,0
moderator,MEDIUM,0,0,3,2,1
moderator,LOW,1,0,3,0,0
customer,LOW,1,1,6,0,0
customer,LOW,1,1,4,4,0
customer,LOW,1,1,2,3,0
moderator,LOW,1,0,1,4,0
customer,LOW,1,1,5,0,2
customer,MEDIUM,1,1,2,0,0
customer,LOW,1,1,2,2,0
moderator,LOW,1,0,6,0,0
customer,LOW,1,1,7,1,0
customer,LOW,1,1,7,0,0
customer,LOW,1,1,4,0,0
customer,LOW,1,0,2,0,1
admin,LOW,1,0,5,0,0
customer,LOW,0,1,5,0,0
admin,MEDIUM,1,0,45,0,1
customer,HIGH,1,1,7,0,0
moderator,MEDIUM,1,0,40,2,2
customer,LOW,0,1,2,0,0
customer,MEDIUM,1,0,7,0,2
moderator,LOW,1,0,6,0,0
customer,LOW,0,1,3,0,0
moderator,LOW,1,0,5,0,0
customer,MEDIUM,1,1,5,0,0
customer,LOW,1,1,3,0,0
customer,LOW,1,1,2,0,0
customer,LOW,1,1,33,5,2
customer,LOW,0,1,2,0,0
customer,LOW,1,1,6,0,0
customer,LOW,1,1,2,0,0
customer,LOW,1,1,6,0,0
customer,LOW,1,1,7,0,0
customer,MEDIUM,1,1,2,0,0
customer,MEDIUM,0,1,46,0,2
moderator,HIGH,1,0,8,0,2
moderator,LOW,1,0,5,0,0
customer,MEDIUM,0,1,4,0,0
customer,MEDIUM,1,1,19,0,2
moderator,MEDIUM,1,0,3,0,0
moderator,MEDIUM,1,0,1,0,0
moderator,LOW,1,0,5,0,0
customer,MEDIUM,1,1,5,0,0
customer,HIGH,0,1,3,2,0
customer,MEDIUM,1,1,5,0,0
customer,LOW,1,1,2,0,0
moderator,LOW,0,0,2,0,0
customer,LOW,1,1,1,0,0
customer,MEDIUM,1,1,1,0,0
moderator,LOW,0,0,1,0,0
moderator,MEDIUM,1,0,6,0,0
customer,MEDIUM,1,1,2,0,0
customer,HIGH,1,0,3,0,2
customer,LOW,0,1,2,0,0
customer,LOW,0,1,3,0,0
customer,MEDIUM,1,1,2,0,0
customer,LOW,1,1,60,0,2
moderator,MEDIUM,1,0,5,0,2
moderator,MEDIUM,1,0,2,0,0
moderator,LOW,1,0,1,0,0
customer,MEDIUM,1,1,5,0,0
moderator,LOW,1,0,4,0,0
moderator,LOW,1,0,2,0,0
moderator,MEDIUM,1,0,6,0,0
moderator,LOW,1,0,5,0,0
customer,MEDIUM,1,1,0,0,0
customer,LOW,1,1,2,0,0
customer,MEDIUM,1,1,1,0,0
moderator,LOW,1,0,1,0,0
customer,LOW,0,1,2,0,0
customer,LOW,1,1,0,0,0
customer,MEDIUM,1,1,7,0,0
customer,LOW,1,1,5,0,0
customer,LOW,1,1,3,0,0
moderator,LOW,0,0,5,0,0
customer,MEDIUM,1,1,4,0,0
customer,MEDIUM,0,1,4,0,0
customer,LOW,1,1,6,0,0
customer,LOW,0,1,2,0,0
customer,LOW,0,1,2,0,0
customer,LOW,0,1,4,0,0
customer,LOW,1,1,7,0,0
moderator,MEDIUM,1,0,2,0,0
customer,MEDIUM,1,1,4,0,0
moderator,MEDIUM,1,0,5,0,0
customer,MEDIUM,1,1,4,0,0
customer,LOW,1,1,7,0,0
moderator,MEDIUM,1,0,5,0,0
customer,MEDIUM,1,1,4,0,0
customer,HIGH,1,1,55,5,2
customer,LOW,1,1,5,0,0
customer,MEDIUM,1,1,5,0,0
customer,MEDIUM,1,1,2,0,0
customer,LOW,1,1,48,0,2
customer,HIGH,1,1,2,0,0
customer,HIGH,1,1,2,0,0
customer,LOW,1,1,6,0,0
customer,LOW,1,1,2,0,0
customer,MEDIUM,1,1,5,0,0
customer,LOW,1,1,1,3,0
customer,LOW,0,1,2,0,0
customer,LOW,1,1,6,2,0
customer,LOW,1,1,2,0,0
customer,MEDIUM,1,1,5,0,0
customer,LOW,1,1,3,0,0
customer,HIGH,1,1,1,0,0
customer,LOW,0,1,2,2,0
customer,LOW,1,1,2,0,0
customer,MEDIUM,1,1,4,0,0
customer,MEDIUM,1,1,3,0,0
moderator,MEDIUM,1,0,5,0,0
customer,LOW,1,1,2,0,0
admin,HIGH,1,0,4,0,0
customer,MEDIUM,1,1,6,2,0
customer,MEDIUM,1,1,1,0,0
customer,LOW,1,1,2,0,0
moderator,LOW,1,0,5,0,0
customer,LOW,1,1,4,5,2
customer,LOW,1,1,6,1,0
customer,LOW,1,1,1,2,0
customer,LOW,1,1,6,0,0
customer,LOW,1,1,0,0,0
admin,MEDIUM,0,0,4,0,0
moderator,LOW,0,0,6,0,0
customer,LOW,0,1,7,0,0
admin,LOW,0,0,1,1,0
customer,LOW,0,1,8,0,0
customer,LOW,1,1,5,0,0
customer,LOW,0,1,6,0,0
customer,MEDIUM,1,1,2,0,0
customer,LOW,1,1,4,0,0
moderator,MEDIUM,1,0,5,0,0
customer,LOW,1,1,6,0,0
moderator,LOW,0,0,7,0,0
customer,LOW,1,1,1,0,0
moderator,LOW,1,0,7,0,0
customer,MEDIUM,0,1,6,0,0
customer,LOW,0,1,6,0,0
customer,MEDIUM,1,1,2,2,0
customer,MEDIUM,1,1,4,0,0
moderator,MEDIUM,1,0,2,0,0
customer,LOW,0,1,7,0,0
moderator,MEDIUM,1,0,6,0,0
customer,LOW,1,1,3,1,0
customer,LOW,1,1,3,2,0
customer,MEDIUM,1,1,3,0,0
customer,MEDIUM,1,1,9,0,1
customer,LOW,1,1,4,0,0
customer,LOW,1,1,6,0,0
customer,LOW,1,1,41,0,2
customer,MEDIUM,1,1,9,0,1
customer,LOW,0,0,7,0,1
customer,HIGH,1,1,4,0,0
admin,MEDIUM,1,0,2,0,0
customer,MEDIUM,1,0,5,0,2
moderator,LOW,1,0,4,3,0
customer,LOW,1,0,4,0,1
customer,LOW,1,1,2,8,2
customer,LOW,1,1,23,0,2
customer,LOW,1,1,4,0,0
customer,LOW,1,1,4,0,0
customer,HIGH,0,1,1,0,0
customer,LOW,1,1,4,0,0
customer,MEDIUM,0,1,3,0,0
customer,MEDIUM,0,1,3,5,2
customer,LOW,1,1,7,1,0
customer,LOW,0,1,5,0,0
customer,LOW,1,1,4,0,0
customer,LOW,1,1,1,0,0
customer,LOW,1,1,55,0,2
customer,LOW,1,1,2,0,0
customer,LOW,1,1,7,0,0
customer,MEDIUM,1,1,2,0,0
customer,MEDIUM,1,1,0,0,0
customer,LOW,1,1,4,0,0
customer,MEDIUM,1,1,5,0,0
customer,LOW,1,1,3,2,0
customer,LOW,1,1,3,0,0
customer,HIGH,1,1,3,1,0
moderator,LOW,1,0,5,0,0
customer,MEDIUM,1,1,3,0,0
customer,MEDIUM,0,1,4,0,0
customer,MEDIUM,1,1,5,1,0
customer,MEDIUM,1,1,3,0,0
customer,LOW,1,1,4,0,0
moderator,LOW,1,1,5,0,0
customer,LOW,1,1,2,0,0
customer,LOW,1,1,6,4,0
customer,LOW,1,0,9,0,1
moderator,MEDIUM,1,0,3,0,0
customer,LOW,1,1,54,3,2
customer,LOW,0,1,3,0,0
customer,MEDIUM,1,1,2,0,0
customer,HIGH,1,0,5,0,2
customer,MEDIUM,1,0,3,4,2
customer,LOW,1,1,4,0,0
customer,LOW,0,1,5,0,0
customer,LOW,1,1,5,0,0
customer,MEDIUM,1,1,5,0,0
moderator,HIGH,1,0,1,0,2
customer,MEDIUM,1,1,3,0,0
customer,LOW,1,1,24,0,2
customer,LOW,1,1,2,0,0
customer,HIGH,1,1,4,0,0
moderator,MEDIUM,1,0,4,0,0
customer,HIGH,1,1,5,0,0
customer,MEDIUM,1,1,1,0,0
customer,MEDIUM,1,1,5,1,0
moderator,LOW,1,0,4,1,0
moderator,LOW,0,0,2,0,0
customer,LOW,1,1,6,0,0
moderator,MEDIUM,1,0,1,0,0
customer,LOW,1,1,5,0,0
customer,LOW,0,1,7,0,0
customer,LOW,1,1,1,0,0
customer,MEDIUM,1,1,3,0,0
customer,HIGH,1,1,6,0,0
customer,LOW,0,1,28,0,2
customer,LOW,1,1,2,0,0
customer,LOW,1,1,6,6,2
moderator,LOW,1,0,11,4,0
customer,LOW,0,1,3,0,0
customer,LOW,1,0,3,0,1
customer,LOW,1,1,7,0,0
customer,MEDIUM,1,0,3,0,2
customer,LOW,1,1,4,0,0
moderator,LOW,0,0,4,0,0
customer,LOW,1,1,5,2,0
customer,LOW,1,1,2,0,0
customer,LOW,1,1,4,0,0
customer,MEDIUM,1,1,4,0,0
customer,HIGH,1,1,7,0,0
customer,LOW,0,1,2,0,0
customer,LOW,1,1,8,0,1
customer,MEDIUM,1,1,2,0,0
customer,MEDIUM,0,1,6,0,0
customer,LOW,1,1,5,0,0
customer,LOW,0,1,5,0,0
moderator,HIGH,1,0,31,0,2
customer,LOW,1,0,4,0,1
customer,LOW,1,1,3,0,0
customer,MEDIUM,1,1,4,0,0
customer,MEDIUM,0,1,7,0,0
customer,HIGH,1,1,8,0,0
customer,LOW,1,1,2,0,0
moderator,LOW,1,1,6,0,0
customer,LOW,1,1,2,0,0
customer,MEDIUM,1,1,5,0,0
customer,MEDIUM,1,1,4,0,0
customer,LOW,0,1,1,5,2
customer,LOW,0,1,4,1,0
customer,MEDIUM,1,1,2,0,0
customer,MEDIUM,1,1,3,0,0
customer,MEDIUM,1,1,5,0,0
customer,LOW,1,1,1,0,0
customer,MEDIUM,0,1,2,0,0
customer,MEDIUM,1,1,9,0,1
customer,LOW,1,1,3,0,0
moderator,LOW,1,1,3,1,0
customer,LOW,1,1,4,0,0
moderator,LOW,1,0,2,0,0
customer,MEDIUM,0,1,5,0,0
customer,MEDIUM,1,1,4,0,0
customer,HIGH,1,1,4,0,0
admin,MEDIUM,0,0,4,0,0
customer,LOW,1,1,4,0,0
customer,LOW,1,1,6,0,0
customer,MEDIUM,1,1,3,0,0
admin,LOW,1,0,9,0,0
customer,HIGH,1,1,2,0,0
customer,LOW,1,1,9,0,1
customer,LOW,1,1,3,0,0
customer,LOW,1,1,4,0,0
customer,MEDIUM,1,1,8,0,0
customer,LOW,1,1,2,0,0
moderator,HIGH,1,1,3,1,2
customer,LOW,1,1,5,0,0
customer,LOW,1,1,3,0,0
customer,LOW,1,1,3,0,0
admin,LOW,0,0,4,0,0
customer,MEDIUM,1,1,4,0,0
admin,MEDIUM,0,0,4,0,0
customer,LOW,0,0,2,0,1
customer,MEDIUM,1,1,6,0,0
moderator,MEDIUM,1,0,4,0,0
customer,LOW,1,1,2,0,0
admin,LOW,1,0,7,0,0
customer,MEDIUM,1,1,6,0,0
customer,MEDIUM,1,1,6,0,0
customer,LOW,1,1,1,0,0
admin,MEDIUM,1,0,3,3,1
customer,LOW,0,1,5,0,0
customer,HIGH,1,1,1,0,0
customer,LOW,1,1,3,0,0
customer,LOW,1,1,1,0,0
moderator,LOW,1,0,4,0,0
customer,HIGH,1,1,2,1,0
customer,MEDIUM,1,1,3,0,0
moderator,MEDIUM,0,0,6,0,1
customer,LOW,1,1,2,0,0
customer,MEDIUM,1,1,6,0,0
admin,LOW,1,0,5,0,0
customer,LOW,1,1,4,0,0
customer,LOW,0,1,3,0,0
moderator,LOW,0,1,2,0,0
moderator,LOW,1,0,5,0,0
customer,LOW,1,1,2,0,0
customer,LOW,1,1,2,0,0
customer,MEDIUM,1,1,5,0,0
customer,LOW,1,1,1,0,0
customer,HIGH,1,1,6,0,0
customer,LOW,1,1,5,0,0
admin,MEDIUM,0,0,5,0,0
customer,MEDIUM,1,1,4,0,0
moderator,LOW,1,0,2,0,0
customer,MEDIUM,1,0,3,0,0
customer,LOW,1,1,2,6,2
admin,LOW,1,1,3,0,0
customer,MEDIUM,1,0,5,0,2
moderator,LOW,1,0,4,0,0
customer,LOW,1,1,6,0,0
customer,MEDIUM,1,1,7,5,2
customer,LOW,1,1,4,2,0
customer,MEDIUM,1,1,5,0,0
customer,LOW,1,1,5,0,0
moderator,LOW,0,0,1,0,0
customer,LOW,1,1,6,0,0
customer,MEDIUM,0,1,2,0,0
customer,MEDIUM,1,1,6,0,0
customer,HIGH,1,1,2,0,0
admin,LOW,1,0,3,0,0
customer,MEDIUM,1,1,4,0,0
customer,MEDIUM,1,1,6,0,0
moderator,MEDIUM,1,0,3,0,0
customer,LOW,0,1,5,0,0
customer,LOW,1,1,8,0,0
admin,MEDIUM,1,0,3,0,0
customer,MEDIUM,1,1,6,0,0
moderator,MEDIUM,0,0,3,0,1
customer,MEDIUM,1,1,1,0,0
moderator,LOW,0,0,5,0,0
customer,MEDIUM,1,1,3,0,0
customer,LOW,1,1,5,0,0
customer,LOW,0,1,40,0,2
moderator,LOW,1,0,6,0,0
customer,LOW,1,1,4,0,0
customer,MEDIUM,0,1,3,0,0
moderator,LOW,1,1,5,1,0
customer,LOW,1,1,4,0,0
customer,LOW,0,1,3,0,0
customer,MEDIUM,1,1,5,8,2
admin,LOW,1,0,7,0,0
customer,LOW,0,1,1,3,0
moderator,LOW,1,0,6,0,0
customer,MEDIUM,1,1,4,0,0
moderator,LOW,1,1,1,0,0
customer,LOW,1,1,3,0,0
customer,LOW,0,1,64,0,2
admin,MEDIUM,1,0,8,0,0
customer,LOW,1,1,3,0,0
customer,LOW,0,1,6,0,0
moderator,HIGH,1,0,4,5,2
customer,LOW,1,1,3,0,0
customer,MEDIUM,1,1,2,3,0
customer,LOW,1,1,5,1,0
customer,LOW,1,1,4,1,0
customer,MEDIUM,1,1,3,0,0
customer,LOW,1,1,1,0,0
moderator,MEDIUM,1,0,4,1,0
customer,MEDIUM,1,1,4,1,0
customer,LOW,1,1,0,0,0
moderator,HIGH,1,0,1,0,2
customer,MEDIUM,1,1,2,0,0
customer,LOW,1,1,5,0,0
customer,MEDIUM,1,1,2,0,0
moderator,MEDIUM,0,0,3,0,1
customer,LOW,1,1,6,0,0
customer,LOW,1,1,8,0,0
moderator,MEDIUM,1,0,2,0,0
customer,LOW,1,1,5,1,0
customer,LOW,1,1,3,0,0
customer,MEDIUM,1,1,5,0,0
customer,MEDIUM,1,1,3,0,0
customer,LOW,1,1,6,0,0
moderator,LOW,1,1,6,0,0
customer,LOW,1,1,3,0,0
moderator,LOW,1,0,5,0,0
customer,HIGH,1,1,6,0,0
customer,HIGH,1,1,1,0,0
customer,MEDIUM,1,1,11,0,1
customer,LOW,1,1,4,0,0
customer,LOW,0,1,3,0,0
customer,LOW,1,0,4,0,1
customer,LOW,0,1,5,0,0
customer,MEDIUM,1,1,2,0,0
customer,LOW,1,1,5,0,0
moderator,MEDIUM,1,0,8,0,0
admin,LOW,1,0,6,0,0
customer,HIGH,0,1,2,0,0
moderator,MEDIUM,1,1,4,0,0
customer,LOW,0,1,4,2,0
customer,MEDIUM,0,1,4,0,0
customer,LOW,1,1,3,0,0
moderator,LOW,0,1,4,0,0
moderator,LOW,1,0,4,0,0
customer,LOW,1,0,3,0,1
customer,MEDIUM,1,1,2,0,0
customer,LOW,1,1,7,0,0
customer,MEDIUM,1,1,3,0,0
customer,MEDIUM,1,1,2,0,0
customer,MEDIUM,1,1,5,0,0
customer,HIGH,0,1,3,0,0
customer,LOW,1,1,3,1,0
customer,MEDIUM,1,0,6,0,2
moderator,LOW,1,0,2,0,0
moderator,LOW,1,1,6,0,0
customer,LOW,0,1,4,0,0
customer,MEDIUM,1,1,5,0,0
customer,LOW,1,1,1,0,0
customer,MEDIUM,1,1,6,0,0
customer,LOW,1,1,1,0,0
moderator,LOW,0,0,8,4,0
customer,HIGH,1,1,2,0,0
customer,MEDIUM,1,1,7,0,0
customer,LOW,1,1,4,0,0
customer,LOW,1,1,3,0,0
admin,MEDIUM,1,0,4,0,0
customer,HIGH,0,1,2,0,0
customer,LOW,0,1,4,0,0
moderator,HIGH,1,0,5,0,2
customer,MEDIUM,1,1,4,0,0
moderator,LOW,1,0,5,2,0
customer,LOW,1,1,5,0,0
customer,LOW,1,1,1,0,0
customer,LOW,1,1,3,0,0
customer,LOW,1,1,39,0,2
moderator,MEDIUM,1,1,32,0,1
customer,MEDIUM,1,1,6,0,0
customer,LOW,1,1,50,0,2
customer,LOW,1,1,1,0,0
customer,LOW,1,1,8,0,0
customer,MEDIUM,1,1,5,0,0
moderator,LOW,0,0,2,0,0
customer,LOW,1,1,3,0,0
admin,LOW,1,1,6,0,0
customer,LOW,1,1,4,0,0
customer,LOW,1,1,5,0,0
customer,LOW,0,1,2,1,0
customer,MEDIUM,1,1,3,0,0
customer,LOW,1,1,2,0,0
customer,HIGH,1,1,7,0,0
moderator,LOW,0,0,5,0,0
moderator,LOW,1,0,2,0,0
customer,HIGH,1,1,3,0,0
customer,MEDIUM,1,1,3,0,0
customer,LOW,1,1,1,0,0
customer,HIGH,1,1,5,0,0
customer,LOW,1,1,2,0,0
moderator,MEDIUM,1,1,7,0,0
customer,MEDIUM,1,1,3,1,0
customer,LOW,1,1,5,0,0
moderator,LOW,0,0,3,1,0
customer,LOW,1,1,5,0,0
moderator,LOW,0,0,9,0,0
customer,LOW,1,1,5,1,0
moderator,MEDIUM,1,0,3,0,0
customer,MEDIUM,0,1,6,0,0
moderator,HIGH,1,0,34,2,2
customer,MEDIUM,1,1,4,0,0
customer,LOW,1,1,5,0,0
customer,MEDIUM,0,1,4,0,0
admin,LOW,0,0,5,0,0
moderator,LOW,1,0,4,0,0
customer,MEDIUM,1,1,1,0,0
customer,HIGH,0,1,4,0,0
customer,LOW,0,1,1,0,0
customer,MEDIUM,1,1,7,0,0
customer,MEDIUM,1,1,4,0,0
customer,LOW,1,1,1,0,0
customer,MEDIUM,1,1,6,0,1
customer,LOW,1,1,17,0,2
moderator,HIGH,0,0,3,0,2
moderator,LOW,1,0,22,0,1
customer,LOW,1,1,5,0,0
customer,LOW,1,1,2,0,0
customer,LOW,0,1,5,0,0
moderator,MEDIUM,1,0,5,0,0
customer,MEDIUM,0,1,5,0,0
customer,LOW,1,1,3,0,0
moderator,LOW,0,0,45,0,2
customer,LOW,1,1,4,0,0
admin,MEDIUM,1,0,5,0,0
customer,LOW,1,1,1,0,0
customer,LOW,1,1,2,0,0
admin,LOW,1,0,4,0,0
moderator,LOW,1,0,4,0,0
customer,MEDIUM,1,1,2,0,0
customer,MEDIUM,1,0,5,0,2
customer,LOW,1,1,2,0,0
moderator,LOW,0,0,4,0,0
customer,LOW,1,1,10,0,1
moderator,LOW,1,0,3,0,0
customer,MEDIUM,0,1,4,0,0
customer,MEDIUM,1,1,4,0,0
customer,MEDIUM,1,1,2,0,0
customer,MEDIUM,1,1,5,0,0
moderator,MEDIUM,1,1,5,0,0
moderator,LOW,1,0,5,0,0
customer,LOW,1,1,3,0,0
admin,LOW,0,1,3,0,0
customer,HIGH,1,1,2,0,0
customer,HIGH,1,1,3,0,0
customer,LOW,1,1,12,0,1
customer,LOW,1,1,3,0,0
customer,LOW,1,1,1,0,0
customer,MEDIUM,1,1,5,0,0
moderator,MEDIUM,1,0,5,0,0
customer,LOW,1,1,4,0,0
customer,LOW,1,1,2,0,0
customer,LOW,1,1,3,0,0
moderator,HIGH,1,0,1,0,2
customer,LOW,1,1,4,0,0
customer,LOW,0,1,6,1,0
customer,MEDIUM,0,1,6,0,0
customer,LOW,1,1,4,1,0
customer,LOW,1,1,3,0,0
admin,MEDIUM,1,0,2,0,0
customer,LOW,0,1,7,0,0
admin,HIGH,0,0,2,0,0
customer,MEDIUM,1,1,3,0,0
customer,LOW,1,1,6,0,0
customer,MEDIUM,0,1,3,0,0
customer,LOW,1,1,5,1,0
customer,LOW,1,1,3,0,0
admin,LOW,1,0,3,0,0
moderator,MEDIUM,1,1,3,0,0
customer,HIGH,1,1,3,0,0
customer,MEDIUM,1,1,8,0,0
customer,MEDIUM,1,1,1,3,0
customer,LOW,1,1,5,0,0
customer,LOW,0,1,7,0,0
customer,LOW,1,0,4,1,1
customer,LOW,1,1,3,0,0
customer,MEDIUM,1,1,5,0,0
customer,MEDIUM,1,1,7,0,0
customer,MEDIUM,1,0,8,0,2
customer,LOW,0,1,3,0,0
moderator,MEDIUM,1,0,3,0,0
moderator,MEDIUM,1,0,2,0,0
customer,LOW,1,1,4,0,0
moderator,HIGH,1,0,1,0,2
customer,LOW,1,1,6,0,0
customer,LOW,0,1,5,0,0
moderator,MEDIUM,1,0,4,0,0
customer,HIGH,1,1,5,0,0
customer,HIGH,1,1,4,0,0
admin,LOW,1,0,3,0,0
customer,HIGH,1,1,6,0,0
moderator,LOW,1,0,4,0,0
customer,LOW,1,1,3,2,0
customer,HIGH,1,1,6,0,0
customer,LOW,0,0,2,0,1
customer,LOW,0,1,4,0,0
admin,LOW,0,0,4,0,0
admin,MEDIUM,0,0,4,1,0
customer,MEDIUM,1,1,7,0,0
customer,MEDIUM,0,1,2,0,0
customer,MEDIUM,1,1,5,0,0
customer,LOW,1,1,7,0,0
customer,MEDIUM,1,1,2,1,0
customer,LOW,1,1,7,0,0
customer,HIGH,1,1,2,3,0
moderator,LOW,1,0,4,0,0
customer,MEDIUM,1,1,2,0,0
customer,MEDIUM,1,1,3,0,0
moderator,MEDIUM,1,0,7,0,0
customer,LOW,0,1,4,0,0
admin,LOW,1,0,0,0,0
customer,LOW,1,1,4,0,0
customer,LOW,0,1,4,0,0
admin,HIGH,1,0,1,0,0
moderator,LOW,1,0,8,0,0
customer,LOW,1,1,1,0,0
customer,HIGH,0,1,8,0,0
moderator,MEDIUM,1,0,2,0,0
moderator,LOW,1,0,1,0,0
moderator,MEDIUM,1,1,2,0,0
customer,MEDIUM,1,1,3,0,0
customer,LOW,1,1,4,0,0
moderator,LOW,1,0,3,0,0
customer,LOW,1,1,2,0,0
customer,MEDIUM,1,1,5,0,0
moderator,MEDIUM,1,1,5,0,0
customer,LOW,1,1,1,0,0
customer,LOW,0,1,4,0,0
customer,LOW,0,1,4,2,0
customer,MEDIUM,1,1,2,0,0
customer,HIGH,1,1,2,0,0
customer,LOW,1,1,5,0,0
moderator,LOW,1,0,3,0,0
customer,LOW,1,1,4,0,0
customer,LOW,1,1,4,0,0
customer,LOW,1,0,3,0,1
customer,MEDIUM,1,1,36,0,2
customer,MEDIUM,1,1,1,0,0
customer,MEDIUM,0,1,3,0,0
moderator,LOW,1,0,3,0,0
customer,LOW,1,1,2,0,0
moderator,LOW,1,0,2,0,0
customer,LOW,1,1,25,0,2
moderator,HIGH,1,0,10,0,2
moderator,LOW,1,1,1,0,0
customer,LOW,1,1,3,0,0
customer,MEDIUM,0,1,3,0,0
admin,MEDIUM,1,0,44,0,1
moderator,MEDIUM,1,0,4,0,0
customer,LOW,1,1,42,0,2
customer,LOW,1,1,7,0,0
customer,MEDIUM,1,1,8,0,0
customer,LOW,1,1,6,0,0
customer,LOW,1,1,5,0,0
moderator,LOW,1,0,7,1,0
customer,HIGH,1,0,3,0,2
moderator,LOW,1,0,4,0,0
customer,LOW,1,1,4,0,0
customer,LOW,1,1,2,7,2
moderator,LOW,1,0,8,0,0
customer,LOW,1,1,4,0,0
customer,LOW,1,1,1,3,0
moderator,LOW,1,1,3,0,0
customer,LOW,1,1,26,0,2
customer,LOW,1,1,15,0,1
customer,LOW,1,1,55,0,2
customer,LOW,1,1,2,0,0
customer,MEDIUM,1,1,3,0,0
admin,LOW,1,0,5,0,0
customer,LOW,1,1,5,0,0
moderator,HIGH,1,0,5,1,2
customer,MEDIUM,1,1,6,0,0
customer,LOW,1,1,4,0,0
moderator,MEDIUM,1,0,3,1,0
customer,LOW,1,1,5,0,0
moderator,LOW,1,1,7,0,0
customer,MEDIUM,1,1,7,0,0
customer,MEDIUM,1,1,1,0,0
customer,HIGH,1,1,1,0,0
moderator,MEDIUM,1,0,3,3,0
moderator,LOW,1,0,4,2,0
customer,LOW,1,1,2,0,0
moderator,LOW,1,0,3,0,0
moderator,LOW,1,0,6,0,0
moderator,MEDIUM,1,1,2,0,0
customer,LOW,1,1,1,0,0
moderator,MEDIUM,0,0,4,0,1
customer,MEDIUM,1,1,6,0,0
customer,HIGH,1,1,4,1,0
customer,HIGH,1,1,3,0,0
customer,LOW,1,1,2,0,0
customer,HIGH,1,1,7,0,0
customer,LOW,1,1,2,2,0
moderator,LOW,1,0,2,0,0
customer,MEDIUM,1,1,8,0,0
customer,LOW,1,1,6,2,0
customer,MEDIUM,1,1,6,1,0
customer,LOW,1,1,7,0,0
moderator,MEDIUM,1,0,54,0,2
customer,LOW,1,0,2,0,1
customer,MEDIUM,1,1,5,2,0
moderator,MEDIUM,1,0,7,1,0
customer,LOW,0,1,4,0,0
customer,MEDIUM,0,1,3,0,0
moderator,LOW,1,0,5,0,0
customer,LOW,1,1,5,0,0
moderator,MEDIUM,1,0,4,0,0
customer,HIGH,1,1,1,0,0
customer,MEDIUM,1,1,4,0,0
customer,LOW,1,1,5,5,2
customer,LOW,1,1,4,0,0
customer,LOW,1,1,4,2,0
moderator,MEDIUM,1,0,7,0,0
customer,MEDIUM,0,1,9,0,1
customer,HIGH,1,1,4,2,0
customer,LOW,1,1,4,0,0
customer,LOW,1,1,5,0,0
customer,HIGH,0,1,4,0,0
customer,LOW,1,0,3,0,1
customer,MEDIUM,1,1,2,0,0
customer,MEDIUM,1,1,4,0,0
customer,MEDIUM,1,1,3,0,0
moderator,HIGH,0,0,5,0,2
customer,LOW,1,1,1,0,0
customer,LOW,1,1,4,1,0
customer,LOW,0,0,2,0,1
customer,LOW,1,1,3,0,0
customer,LOW,1,1,5,0,0
customer,MEDIUM,1,1,4,0,0
customer,MEDIUM,0,1,6,0,0
customer,MEDIUM,1,1,5,0,0
customer,MEDIUM,1,1,2,5,2
customer,LOW,0,1,3,0,0
customer,LOW,1,1,7,1,0
customer,HIGH,0,0,5,0,2
moderator,LOW,1,0,3,0,0
admin,LOW,1,1,28,0,1
customer,MEDIUM,1,1,8,0,0
customer,LOW,1,1,3,0,0
customer,HIGH,1,1,5,0,0
customer,LOW,1,1,3,0,0
customer,LOW,1,1,2,0,0
customer,LOW,0,1,4,0,0
customer,LOW,0,1,8,0,0
customer,MEDIUM,1,1,5,0,0
moderator,HIGH,0,1,8,0,2
moderator,LOW,1,1,5,0,0
moderator,LOW,0,0,4,0,0
customer,MEDIUM,1,1,4,0,0
customer,LOW,1,1,2,7,2
customer,LOW,1,1,3,0,0
customer,MEDIUM,1,1,4,0,0
customer,LOW,1,1,6,1,0
customer,LOW,1,1,2,0,0
moderator,HIGH,1,1,4,0,2
customer,MEDIUM,1,1,5,0,0
customer,LOW,1,1,7,0,0
customer,LOW,1,1,5,0,0
customer,MEDIUM,1,1,4,0,0
customer,MEDIUM,1,1,21,1,2
customer,MEDIUM,1,1,5,0,0
customer,LOW,0,1,6,0,0
moderator,LOW,1,0,29,0,2
customer,LOW,1,1,4,0,0
customer,LOW,0,1,3,0,0
moderator,LOW,1,0,5,0,0
customer,HIGH,0,1,3,0,0
customer,MEDIUM,1,1,5,0,0
moderator,LOW,1,0,5,0,0
customer,LOW,1,1,3,7,2
customer,LOW,1,1,7,0,0
customer,LOW,1,1,1,0,0
moderator,LOW,1,0,3,2,0
customer,MEDIUM,1,1,3,0,0
admin,LOW,0,1,2,0,0
moderator,MEDIUM,1,0,4,0,0
customer,LOW,1,1,5,0,0
customer,LOW,1,1,56,0,2
moderator,MEDIUM,0,0,4,0,1
customer,MEDIUM,1,1,5,0,0
customer,HIGH,1,1,3,0,1
customer,MEDIUM,1,1,3,0,0
moderator,LOW,0,0,0,0,0
customer,LOW,1,1,5,0,0
customer,LOW,1,1,4,0,0
customer,LOW,0,1,2,0,0
moderator,LOW,1,0,1,0,0
customer,LOW,0,1,5,0,0
customer,LOW,1,1,5,0,0
customer,MEDIUM,1,1,6,0,0
admin,MEDIUM,1,0,45,0,1
moderator,MEDIUM,1,1,1,0,0
customer,LOW,1,1,32,0,2
customer,MEDIUM,1,1,4,0,0
customer,LOW,1,1,4,0,0
customer,LOW,0,1,3,0,0
customer,LOW,1,1,3,0,0
customer,MEDIUM,0,1,5,0,0
customer,LOW,1,1,2,0,0
customer,LOW,1,1,5,0,0
customer,LOW,1,1,6,0,0
customer,MEDIUM,0,1,29,1,2
customer,MEDIUM,1,1,4,0,0
customer,LOW,1,1,5,0,0
customer,LOW,0,1,27,0,2
moderator,LOW,1,0,1,0,0
customer,LOW,1,1,4,0,0
customer,LOW,1,1,3,0,0
customer,LOW,1,1,4,0,0
customer,LOW,1,1,5,1,0
moderator,LOW,1,0,5,0,0
customer,LOW,1,0,58,0,2
customer,LOW,1,1,6,0,0
moderator,MEDIUM,1,0,2,0,0
moderator,LOW,1,0,4,0,0
customer,LOW,1,1,3,4,0
customer,LOW,1,1,5,0,0
admin,MEDIUM,1,0,4,0,0
customer,LOW,1,1,4,0,0
moderator,MEDIUM,0,1,4,0,1
customer,LOW,1,1,5,3,0
moderator,HIGH,1,0,17,0,2
customer,LOW,1,1,2,0,0
customer,LOW,1,1,1,0,0
customer,MEDIUM,1,1,5,0,0
customer,HIGH,1,1,6,0,0
moderator,LOW,1,0,5,1,0
customer,LOW,1,1,4,3,2
moderator,LOW,1,0,6,0,0
moderator,LOW,0,0,5,1,0
customer,MEDIUM,1,1,4,0,2
customer,LOW,1,1,5,0,0
moderator,LOW,1,1,4,0,0
customer,MEDIUM,1,1,0,0,0
customer,LOW,0,1,1,0,0
customer,LOW,1,1,4,0,0
admin,LOW,0,0,3,0,0
customer,LOW,1,1,5,5,2
customer,MEDIUM,1,1,27,0,2
customer,LOW,1,1,5,0,0
customer,LOW,1,1,7,0,0
customer,MEDIUM,1,1,5,0,0
customer,LOW,1,1,5,0,0
admin,LOW,0,0,3,0,0
customer,LOW,1,1,3,0,0
customer,MEDIUM,1,1,62,0,2
customer,LOW,0,0,1,0,1
customer,LOW,1,1,5,0,0
moderator,LOW,0,0,1,0,0
customer,HIGH,0,1,2,3,0
customer,LOW,1,1,8,0,0
moderator,LOW,0,1,3,0,0
customer,MEDIUM,1,1,4,0,0
moderator,HIGH,1,0,8,0,2
customer,LOW,0,1,0,0,0
customer,LOW,1,1,4,0,0
customer,LOW,1,1,4,0,0
customer,HIGH,1,1,6,0,0
moderator,MEDIUM,1,0,2,2,0
customer,LOW,1,1,2,0,0
customer,LOW,1,1,4,0,0
customer,LOW,1,1,6,0,0
customer,LOW,1,0,4,0,1
customer,LOW,0,1,7,0,0
moderator,MEDIUM,1,0,4,0,0
customer,LOW,0,1,5,6,2
customer,MEDIUM,1,1,3,0,2
customer,LOW,0,1,2,0,0
customer,MEDIUM,0,1,37,0,2
moderator,MEDIUM,1,0,31,0,2
customer,LOW,1,1,26,1,2
customer,MEDIUM,1,1,2,0,0
customer,LOW,0,1,4,0,0
customer,LOW,1,1,4,3,0
moderator,LOW,1,0,4,0,0
customer,LOW,1,1,4,0,0
moderator,LOW,1,0,3,0,0
moderator,LOW,1,0,2,0,0
customer,LOW,1,1,2,0,0
admin,MEDIUM,1,0,5,0,0
customer,MEDIUM,1,0,4,0,2
customer,MEDIUM,1,0,6,2,2
moderator,MEDIUM,1,0,4,0,0
customer,LOW,1,0,1,0,1
admin,HIGH,1,0,3,0,0
customer,MEDIUM,0,1,7,0,0
customer,LOW,1,1,4,0,0
customer,LOW,1,1,11,0,1
customer,MEDIUM,1,1,4,0,0
customer,HIGH,1,1,3,0,0
moderator,LOW,1,0,9,0,0
customer,MEDIUM,0,1,5,0,0
customer,MEDIUM,1,1,2,0,0
customer,LOW,1,1,6,0,0
admin,LOW,1,0,2,0,0
customer,MEDIUM,1,1,3,0,0
customer,LOW,0,1,3,0,0
customer,MEDIUM,0,1,3,0,0
customer,LOW,1,1,2,0,0
moderator,LOW,0,0,5,0,0
customer,MEDIUM,1,1,7,0,0
customer,HIGH,1,1,4,0,0
customer,LOW,1,1,5,0,0
customer,LOW,1,1,3,0,0
customer,MEDIUM,1,1,2,0,0
moderator,HIGH,1,0,5,0,2
moderator,LOW,1,0,8,0,0
customer,HIGH,1,1,2,0,0
customer,MEDIUM,1,1,2,0,0
customer,HIGH,1,1,55,5,2
moderator,MEDIUM,1,1,3,0,0
customer,LOW,1,1,1,0,0
customer,LOW,0,1,2,0,0
moderator,LOW,1,0,5,0,0
customer,MEDIUM,1,1,0,5,2
customer,MEDIUM,1,1,1,0,0
customer,MEDIUM,0,1,5,4,0
customer,LOW,1,1,1,0,0
customer,MEDIUM,1,1,6,0,0
customer,HIGH,1,1,3,5,2
moderator,LOW,0,0,0,0,0
customer,MEDIUM,1,1,3,0,0
customer,LOW,1,1,2,0,0
moderator,LOW,1,1,2,6,2
moderator,HIGH,0,0,2,0,2
customer,HIGH,1,1,1,0,0
customer,LOW,0,1,5,0,0
customer,MEDIUM,1,1,2,0,0
customer,LOW,1,1,2,0,0
customer,LOW,1,1,5,0,0
customer,HIGH,1,1,20,0,2
customer,MEDIUM,1,1,4,0,0
moderator,MEDIUM,1,0,3,0,0
customer,LOW,1,1,5,0,0
customer,LOW,1,1,1,0,0
customer,LOW,1,1,2,0,0
customer,MEDIUM,1,1,4,0,0
moderator,MEDIUM,1,0,1,0,0
customer,LOW,0,1,6,0,0
customer,MEDIUM,1,0,26,2,2
customer,LOW,1,1,4,0,0
customer,LOW,1,1,6,0,0
admin,LOW,0,0,2,0,0
customer,LOW,1,1,10,0,1
moderator,LOW,1,1,4,1,0
customer,MEDIUM,1,1,4,0,0
customer,MEDIUM,1,1,4,0,0
moderator,LOW,1,0,2,0,0
customer,LOW,1,1,3,0,0
customer,HIGH,1,1,1,0,0
customer,LOW,1,0,8,0,1
customer,MEDIUM,1,1,7,0,0
moderator,LOW,1,0,4,2,0
customer,LOW,1,1,42,0,2
customer,MEDIUM,1,1,5,0,0
customer,LOW,1,1,4,0,0
customer,MEDIUM,1,1,3,0,0
customer,MEDIUM,1,1,5,0,0
customer,MEDIUM,1,1,1,0,0
customer,MEDIUM,1,1,6,1,0
customer,MEDIUM,1,1,1,0,0
customer,MEDIUM,1,1,5,0,0
moderator,LOW,0,0,2,0,0
customer,MEDIUM,1,1,3,1,0
moderator,LOW,0,0,4,0,0
customer,LOW,1,1,4,0,0
customer,LOW,0,1,5,0,0
customer,MEDIUM,0,1,2,0,0
customer,LOW,0,1,3,0,0
customer,LOW,1,1,2,2,0
customer,LOW,1,1,4,0,0
customer,MEDIUM,1,0,2,0,2
customer,MEDIUM,1,1,2,0,0
customer,LOW,1,1,1,0,0
customer,LOW,0,1,3,0,0
customer,MEDIUM,1,1,2,0,0
customer,MEDIUM,1,1,7,0,0
moderator,HIGH,1,0,3,0,2
customer,LOW,1,1,4,0,0
customer,MEDIUM,1,1,4,0,0
customer,LOW,0,1,3,0,0
moderator,HIGH,1,0,6,1,2
moderator,HIGH,1,0,7,0,2
customer,LOW,1,1,8,0,0
customer,MEDIUM,0,1,4,0,0
moderator,LOW,1,0,3,0,0
moderator,LOW,1,0,2,0,0
customer,MEDIUM,1,1,6,0,0
customer,LOW,1,1,7,0,0
customer,LOW,1,1,4,1,0
customer,LOW,1,1,5,4,0
customer,MEDIUM,1,1,5,0,0
customer,LOW,0,1,1,0,0
customer,MEDIUM,0,1,4,0,0
moderator,LOW,1,0,4,0,0
customer,MEDIUM,1,1,1,0,0
customer,MEDIUM,1,1,5,1,0
customer,LOW,1,1,3,0,0
customer,LOW,1,1,6,1,0
customer,MEDIUM,1,1,6,0,0
admin,LOW,1,0,7,1,0
moderator,MEDIUM,1,0,3,0,0
customer,HIGH,1,1,8,0,0
moderator,LOW,1,1,5,0,0
customer,MEDIUM,1,1,8,0,0
customer,LOW,1,1,7,4,0
customer,LOW,1,1,5,0,0
admin,MEDIUM,1,0,48,0,1
moderator,LOW,0,1,5,0,0
customer,LOW,1,1,3,0,0
customer,MEDIUM,1,1,1,0,0
admin,LOW,1,0,2,0,0
customer,MEDIUM,0,1,5,0,0
customer,LOW,1,1,6,0,0
moderator,MEDIUM,1,0,7,0,0
moderator,MEDIUM,1,0,5,0,0
customer,LOW,1,1,3,0,0
customer,LOW,1,1,2,0,0
customer,LOW,0,1,4,0,0
customer,HIGH,1,1,34,0,2
customer,LOW,1,1,0,0,0
customer,LOW,1,1,3,1,0
customer,MEDIUM,0,1,5,0,0
customer,LOW,1,1,3,0,0
customer,LOW,1,1,5,0,0
admin,MEDIUM,1,1,6,0,0
moderator,HIGH,1,0,6,0,2
customer,LOW,1,1,4,0,0
moderator,MEDIUM,1,1,0,0,0
customer,MEDIUM,1,1,2,0,0
moderator,MEDIUM,1,0,56,0,2
customer,LOW,1,1,7,0,0
customer,LOW,1,1,1,0,0
customer,LOW,1,1,5,0,0
customer,LOW,1,1,3,3,0
customer,HIGH,1,1,2,0,0
customer,LOW,1,1,4,0,0
customer,MEDIUM,1,1,4,0,0
customer,MEDIUM,1,1,4,0,0
moderator,LOW,1,0,4,0,0
moderator,MEDIUM,1,0,6,0,0
customer,HIGH,1,1,1,0,0
customer,MEDIUM,1,1,4,0,0
customer,MEDIUM,1,1,4,0,0
admin,MEDIUM,1,0,5,0,0
customer,LOW,1,1,2,0,0
moderator,LOW,1,0,3,0,0
admin,MEDIUM,1,1,3,0,0
customer,LOW,1,1,8,0,0
customer,MEDIUM,0,1,3,0,0
customer,LOW,1,1,7,2,0
customer,LOW,0,1,6,0,0
admin,MEDIUM,1,0,3,0,0
moderator,MEDIUM,0,0,3,0,1
admin,LOW,0,0,5,0,0
customer,HIGH,1,1,4,0,0
moderator,MEDIUM,1,0,3,0,0
customer,MEDIUM,1,1,2,0,0
customer,MEDIUM,0,1,2,0,0
customer,MEDIUM,1,1,6,1,0
admin,MEDIUM,1,1,4,0,0
customer,LOW,1,1,6,0,0
moderator,LOW,0,0,7,0,0
customer,LOW,1,1,7,0,0
customer,LOW,1,1,1,0,0
customer,LOW,1,1,4,3,0
moderator,LOW,0,0,1,0,0
customer,MEDIUM,1,0,2,0,2
customer,LOW,0,1,5,0,0
customer,LOW,1,1,3,0,0
customer,MEDIUM,1,1,4,0,0
customer,MEDIUM,1,1,4,0,0
customer,LOW,1,1,2,0,0
customer,MEDIUM,1,1,6,0,0
customer,HIGH,0,1,5,0,0
customer,LOW,1,0,5,3,1
customer,LOW,1,1,6,1,0
moderator,LOW,1,0,10,2,0
customer,MEDIUM,1,1,4,0,0
customer,LOW,1,1,2,0,0
customer,MEDIUM,0,1,6,0,0
customer,LOW,1,1,8,0,0
admin,MEDIUM,1,1,4,0,0
customer,LOW,1,1,4,0,0
moderator,MEDIUM,1,0,3,0,0
customer,MEDIUM,1,1,9,0,1
customer,HIGH,1,1,4,0,0
moderator,LOW,1,0,2,1,0
customer,LOW,1,1,2,0,0
customer,MEDIUM,1,0,5,0,2
customer,LOW,1,1,5,0,0
customer,MEDIUM,1,1,3,0,0
moderator,MEDIUM,1,0,5,0,0
customer,MEDIUM,1,1,3,0,0
customer,LOW,1,1,7,0,0
customer,LOW,0,1,2,0,0
customer,LOW,0,1,4,0,0
customer,LOW,1,1,7,2,0
customer,MEDIUM,1,1,3,0,0
customer,LOW,1,1,3,0,0
customer,LOW,1,1,2,0,0
customer,MEDIUM,1,1,3,0,0
customer,HIGH,0,1,4,0,0
customer,LOW,1,1,5,0,0
moderator,HIGH,1,0,2,0,2
customer,LOW,0,1,6,0,0
customer,LOW,0,1,4,0,0
customer,LOW,1,1,6,0,0
customer,LOW,0,1,4,0,0
moderator,LOW,0,0,2,0,0
customer,LOW,0,1,6,0,0
customer,LOW,1,0,4,0,1
customer,MEDIUM,1,1,4,0,0
customer,LOW,1,1,4,0,0
admin,LOW,1,0,3,0,0
moderator,LOW,1,0,3,0,0
customer,MEDIUM,0,1,2,0,0
customer,LOW,1,1,26,0,2
customer,MEDIUM,1,1,4,1,0
customer,LOW,0,1,3,0,0
customer,MEDIUM,1,1,5,0,0
customer,MEDIUM,1,1,5,0,0
customer,HIGH,1,1,7,0,0
moderator,LOW,1,0,9,0,0
moderator,LOW,1,0,4,0,0
moderator,HIGH,1,1,3,0,2
moderator,LOW,0,1,5,0,0
customer,LOW,1,1,4,0,0
moderator,MEDIUM,1,0,3,0,0
moderator,LOW,0,0,2,0,0
customer,MEDIUM,1,1,5,0,0
customer,MEDIUM,0,1,3,0,0
customer,LOW,1,1,6,0,0
customer,LOW,1,1,1,0,0
customer,LOW,1,1,8,0,0
moderator,MEDIUM,0,0,2,0,1
customer,LOW,1,1,10,0,1
moderator,LOW,1,0,2,0,0
customer,LOW,1,1,3,0,0
customer,MEDIUM,1,1,5,1,0
customer,MEDIUM,1,1,5,0,0
customer,LOW,1,1,8,0,0
customer,MEDIUM,1,1,3,0,0
admin,LOW,1,0,5,0,0
moderator,MEDIUM,1,1,2,0,0
moderator,HIGH,1,0,7,0,2
customer,LOW,1,1,2,0,0
customer,LOW,1,0,5,0,1
customer,LOW,1,1,4,0,0
customer,LOW,1,1,3,0,0
customer,LOW,1,1,9,0,1
customer,LOW,1,1,3,0,0
customer,MEDIUM,1,1,2,0,0
customer,HIGH,0,1,3,0,0
customer,LOW,0,1,2,0,0
customer,LOW,0,1,5,0,0
customer,LOW,0,1,53,0,2
moderator,LOW,1,0,3,1,0
customer,LOW,1,1,1,0,0
moderator,HIGH,1,0,5,0,2
customer,MEDIUM,1,1,5,0,0
customer,LOW,1,1,2,2,0
customer,MEDIUM,1,1,4,0,0
customer,LOW,1,1,1,0,0
customer,LOW,1,1,7,0,0
customer,HIGH,1,1,3,0,0
customer,LOW,0,1,6,0,0
customer,LOW,1,0,19,0,2
moderator,LOW,1,0,29,0,2
customer,LOW,1,0,5,0,1
moderator,LOW,1,0,15,0,0
customer,LOW,1,1,6,0,0
customer,LOW,1,1,3,0,0
customer,HIGH,1,1,3,0,0
moderator,LOW,1,0,6,0,0
customer,MEDIUM,1,1,7,0,2
moderator,LOW,1,0,6,0,0
customer,MEDIUM,1,1,7,0,0
customer,LOW,0,1,5,0,0
customer,LOW,0,1,2,2,0
customer,LOW,1,1,9,0,1
customer,LOW,1,1,4,0,0
customer,HIGH,1,1,4,0,0
customer,MEDIUM,1,1,4,0,0
customer,LOW,0,1,5,0,0
moderator,MEDIUM,1,0,2,0,0
moderator,MEDIUM,1,0,3,0,0
customer,LOW,1,1,2,0,0
moderator,LOW,0,0,5,0,1
customer,LOW,1,1,3,0,0
moderator,LOW,1,0,4,4,0
customer,MEDIUM,1,1,2,0,0
customer,MEDIUM,1,1,2,0,0
customer,MEDIUM,1,1,2,0,0
customer,LOW,1,1,2,0,0
customer,HIGH,1,0,3,1,2
moderator,LOW,1,0,9,0,0
admin,LOW,1,0,3,0,0
customer,HIGH,1,1,3,0,0
customer,HIGH,1,1,35,0,2
customer,MEDIUM,1,1,6,0,0
moderator,LOW,0,1,2,0,0
customer,HIGH,1,0,9,0,2
customer,LOW,1,1,0,0,0
customer,LOW,1,1,6,2,0
customer,MEDIUM,1,1,5,0,0
customer,LOW,1,1,28,0,2
customer,LOW,1,1,7,0,0
customer,LOW,0,1,24,1,2
customer,LOW,1,1,3,0,0
customer,LOW,0,1,2,0,0
customer,LOW,1,1,4,2,0
moderator,MEDIUM,0,0,4,0,1
customer,LOW,0,0,5,0,1
customer,LOW,0,1,2,0,0
customer,MEDIUM,1,1,5,0,0
customer,MEDIUM,1,1,4,0,0
customer,HIGH,1,1,1,0,0
moderator,LOW,1,0,6,0,0
moderator,LOW,1,0,7,0,0
customer,HIGH,1,1,4,0,0
customer,LOW,0,1,4,0,0
customer,HIGH,0,1,2,0,0
customer,MEDIUM,1,1,2,1,0
customer,MEDIUM,0,1,3,0,0
customer,MEDIUM,1,1,3,0,0
customer,LOW,1,1,4,0,0
customer,HIGH,1,1,2,0,0
customer,LOW,1,1,4,1,0
moderator,LOW,1,0,3,0,0
customer,LOW,1,1,0,0,0
customer,HIGH,1,1,6,0,0
customer,LOW,1,1,5,0,0
customer,MEDIUM,1,1,4,5,2
customer,LOW,1,1,5,0,0
admin,LOW,1,0,4,0,0
customer,MEDIUM,1,1,4,5,2
moderator,MEDIUM,0,1,3,0,1
moderator,LOW,1,0,4,0,0
customer,MEDIUM,0,0,3,0,2
moderator,LOW,0,1,3,0,0
customer,LOW,1,1,2,0,0
customer,LOW,0,1,1,0,0
customer,LOW,1,1,5,5,2
customer,LOW,1,1,5,0,0
customer,HIGH,1,1,6,0,0
customer,LOW,1,1,4,0,0
customer,LOW,1,1,6,0,0
customer,LOW,1,1,4,0,0
admin,LOW,1,1,1,0,0
customer,MEDIUM,1,1,1,0,0
customer,LOW,1,1,3,0,0
customer,LOW,1,1,5,0,0
moderator,MEDIUM,1,0,3,1,0
customer,MEDIUM,1,1,2,0,0
customer,LOW,0,1,2,0,0
customer,LOW,0,1,60,0,2
customer,LOW,1,1,3,1,0
customer,LOW,0,1,2,0,0
moderator,LOW,1,0,6,0,0
moderator,LOW,1,0,2,0,0
customer,MEDIUM,1,1,5,0,0
customer,LOW,1,1,5,0,0
customer,LOW,0,1,3,0,0
customer,MEDIUM,1,1,4,0,0
moderator,LOW,1,0,4,0,0
customer,HIGH,1,1,4,0,0
customer,HIGH,0,1,49,0,2
moderator,LOW,1,1,4,0,0
customer,LOW,1,1,4,0,0
customer,LOW,1,1,3,0,0
customer,LOW,1,1,5,0,0
moderator,MEDIUM,1,1,3,0,0
customer,LOW,0,1,4,0,0
customer,LOW,1,1,3,0,0
customer,LOW,1,1,4,0,0
customer,LOW,1,1,1,0,0
customer,MEDIUM,1,1,4,1,0
customer,LOW,1,1,6,0,0
customer,HIGH,1,0,6,0,2
customer,LOW,1,1,1,4,0
customer,LOW,1,1,6,0,0
moderator,LOW,1,0,2,0,0
customer,LOW,0,1,5,0,0
customer,MEDIUM,1,1,9,0,1
customer,LOW,1,1,2,0,0
customer,LOW,1,1,3,0,0
admin,LOW,1,0,2,0,0
customer,LOW,1,1,7,0,0
customer,HIGH,1,1,6,0,0
customer,HIGH,0,1,5,0,0
customer,MEDIUM,1,1,3,0,0
moderator,LOW,1,0,4,0,0
customer,LOW,1,1,3,3,0
customer,HIGH,0,1,2,0,0
customer,LOW,1,1,5,0,0
moderator,HIGH,1,0,7,0,2
moderator,HIGH,0,1,3,0,2
customer,HIGH,1,1,3,0,0
moderator,LOW,1,0,5,0,0
admin,MEDIUM,1,0,4,2,0
customer,MEDIUM,1,1,5,0,0
customer,HIGH,1,1,3,0,0
customer,LOW,1,1,4,0,0
customer,MEDIUM,1,1,2,0,0
customer,HIGH,1,1,4,0,0
customer,LOW,1,1,27,0,2
admin,HIGH,1,0,3,0,0
moderator,MEDIUM,1,1,0,0,0
moderator,HIGH,0,0,5,0,2
customer,LOW,1,1,8,0,0
customer,MEDIUM,1,1,4,0,0
customer,MEDIUM,1,1,3,0,0
customer,LOW,1,1,0,0,0
moderator,MEDIUM,0,0,3,0,1
customer,HIGH,1,1,5,0,0
customer,MEDIUM,1,1,4,0,0
customer,LOW,1,1,1,0,0
moderator,LOW,1,0,4,0,0
customer,MEDIUM,1,1,2,0,0
customer,LOW,1,1,4,0,0
customer,MEDIUM,1,1,6,0,0
customer,LOW,1,1,5,0,0
moderator,MEDIUM,0,0,2,0,1
moderator,MEDIUM,1,0,4,0,0
moderator,MEDIUM,1,0,1,0,0
customer,HIGH,1,1,7,0,0
moderator,LOW,0,1,3,0,0
customer,LOW,1,1,5,0,0
customer,MEDIUM,1,1,2,0,0
customer,LOW,1,1,8,0,0
customer,LOW,1,1,4,0,0
customer,HIGH,1,1,47,0,2
customer,LOW,1,1,2,0,0
customer,MEDIUM,1,1,2,0,0
customer,HIGH,1,1,60,3,2
customer,MEDIUM,1,1,58,0,2
customer,LOW,1,1,3,4,0
customer,LOW,1,1,7,0,0
customer,LOW,1,1,5,0,0
customer,LOW,1,1,4,0,0
customer,MEDIUM,1,1,5,0,0
customer,LOW,1,1,6,0,0
customer,LOW,1,1,4,0,0
moderator,LOW,1,0,4,1,0
customer,HIGH,1,1,6,0,0
moderator,LOW,1,0,6,0,0
customer,LOW,1,1,3,0,0
moderator,MEDIUM,0,0,5,0,1
moderator,LOW,1,0,4,0,0
customer,HIGH,0,1,1,0,0
moderator,HIGH,1,1,7,0,2
customer,MEDIUM,1,1,7,0,0
moderator,LOW,0,0,5,0,0
customer,LOW,1,1,2,0,0
customer,MEDIUM,1,1,7,4,0
customer,LOW,0,1,3,0,0
customer,LOW,1,1,3,2,0
customer,LOW,1,1,4,0,0
customer,MEDIUM,0,1,4,0,0
customer,HIGH,1,0,59,0,2
customer,MEDIUM,1,1,3,0,0
customer,LOW,1,1,2,4,0
customer,LOW,1,1,7,0,0
moderator,MEDIUM,1,1,5,0,0
customer,LOW,1,1,5,0,0
moderator,LOW,1,1,5,0,0
admin,LOW,1,0,6,5,2
admin,LOW,1,1,7,0,0
moderator,LOW,1,0,53,0,2
customer,MEDIUM,1,1,4,0,0
customer,HIGH,1,1,6,0,0
moderator,LOW,1,0,3,0,0
moderator,LOW,1,0,5,0,0
customer,MEDIUM,1,1,4,0,0
customer,LOW,1,1,4,0,0
customer,MEDIUM,1,1,7,2,0
admin,LOW,0,0,6,0,0
customer,LOW,1,1,2,0,0
customer,LOW,1,1,9,0,1
customer,LOW,1,1,6,1,0
customer,MEDIUM,1,0,15,0,2
customer,MEDIUM,1,1,4,0,0
customer,HIGH,1,1,3,0,0
customer,LOW,1,1,3,0,0
moderator,MEDIUM,0,0,5,0,1
customer,LOW,1,0,4,0,1
moderator,LOW,1,0,6,0,0
customer,LOW,1,1,23,0,2
customer,MEDIUM,1,1,2,0,0
moderator,LOW,1,1,4,0,0
customer,LOW,1,1,3,0,0
moderator,LOW,1,0,2,0,0
customer,LOW,1,1,3,0,0
customer,LOW,1,1,4,1,0
customer,LOW,1,1,2,0,0
customer,MEDIUM,1,1,7,0,0
customer,LOW,1,1,4,0,0
customer,LOW,1,0,3,0,1
customer,LOW,1,1,54,0,2
customer,MEDIUM,1,1,4,3,0
moderator,MEDIUM,1,0,1,0,0
moderator,LOW,1,0,2,0,0
customer,MEDIUM,0,1,4,0,0
customer,MEDIUM,1,1,4,0,0
moderator,MEDIUM,1,0,11,0,0
customer,LOW,1,1,2,0,0
customer,HIGH,1,1,2,5,2
customer,LOW,1,1,2,0,0
moderator,LOW,1,0,3,0,0
customer,MEDIUM,1,1,4,0,0
customer,MEDIUM,1,0,7,0,2
customer,LOW,1,1,6,0,0
customer,LOW,1,1,7,0,0
customer,MEDIUM,1,1,5,0,0
customer,LOW,1,1,4,0,0
customer,MEDIUM,1,1,6,0,0
customer,MEDIUM,1,0,6,0,2
customer,LOW,1,1,1,0,0
customer,LOW,0,1,2,1,0
customer,LOW,1,1,6,0,0
moderator,LOW,0,0,6,0,0
customer,HIGH,0,1,8,0,0
moderator,LOW,1,0,2,1,0
customer,LOW,0,1,3,5,2
customer,LOW,0,0,2,0,1
customer,MEDIUM,0,1,1,4,0
customer,HIGH,1,0,9,0,2
customer,LOW,0,1,2,0,2
customer,LOW,1,1,7,0,0
customer,HIGH,1,1,7,0,0
moderator,LOW,1,0,7,0,0
customer,LOW,1,1,3,3,0
customer,LOW,1,1,6,0,0
customer,LOW,1,1,4,0,0
customer,HIGH,1,1,3,1,0
customer,LOW,1,1,3,0,0
customer,LOW,1,1,3,0,0
customer,HIGH,1,1,10,0,1
customer,MEDIUM,0,1,39,0,2
customer,LOW,1,1,2,6,2
customer,LOW,1,1,5,0,0
customer,LOW,1,1,2,0,0
customer,LOW,1,1,1,0,0
moderator,LOW,0,0,3,0,0
moderator,MEDIUM,1,1,8,0,0
customer,LOW,1,1,6,0,0
customer,HIGH,1,0,4,0,2
admin,LOW,1,0,6,0,0
customer,LOW,1,1,2,0,0
customer,LOW,1,1,48,0,2
customer,LOW,1,1,4,0,0
customer,MEDIUM,1,1,4,0,0
customer,HIGH,1,1,3,1,0
moderator,MEDIUM,1,0,46,0,2
moderator,HIGH,1,0,3,0,2
moderator,LOW,1,0,7,0,0
customer,LOW,1,1,2,0,0
moderator,MEDIUM,1,0,7,0,0
customer,LOW,1,1,0,0,0
customer,LOW,1,0,4,1,1
customer,LOW,1,1,2,0,1
customer,LOW,1,0,6,0,1
customer,LOW,1,1,7,0,0
admin,MEDIUM,1,0,2,0,0
customer,LOW,1,0,3,0,1
customer,LOW,1,1,2,0,0
customer,LOW,1,1,2,0,0
customer,HIGH,1,1,7,1,0
moderator,LOW,0,0,7,0,0
moderator,LOW,1,0,3,0,0
moderator,LOW,1,0,0,0,0
customer,LOW,1,1,5,0,0
customer,LOW,1,1,4,3,0
customer,MEDIUM,0,1,8,0,0
customer,LOW,0,1,7,0,0
moderator,LOW,1,0,6,0,0
customer,LOW,1,1,7,0,0
customer,MEDIUM,1,1,4,0,0
moderator,LOW,1,0,2,0,0
customer,MEDIUM,0,1,4,0,0
customer,MEDIUM,1,1,4,0,0
customer,LOW,1,1,3,0,0
moderator,MEDIUM,0,1,3,0,1
moderator,LOW,1,1,5,0,0
moderator,MEDIUM,1,0,3,0,0
customer,LOW,1,1,39,1,0
customer,MEDIUM,0,1,4,0,0
customer,MEDIUM,1,1,4,0,0
moderator,LOW,1,1,27,0,1
customer,LOW,1,1,6,0,0
customer,LOW,1,1,1,0,0
customer,MEDIUM,1,1,4,0,0
customer,HIGH,1,1,4,0,0
customer,LOW,1,1,3,0,0
customer,LOW,1,1,6,0,0
customer,MEDIUM,1,1,5,0,0
customer,MEDIUM,1,1,2,0,0
customer,MEDIUM,1,1,4,0,0
customer,LOW,1,1,1,5,2
customer,MEDIUM,1,1,1,0,0
customer,MEDIUM,1,1,3,0,2
customer,LOW,1,1,35,0,2
customer,LOW,1,1,4,0,0
admin,LOW,1,0,7,0,0
admin,LOW,1,0,3,0,0
customer,LOW,1,1,3,3,0
customer,LOW,1,0,3,0,1
moderator,LOW,1,0,4,3,0
moderator,LOW,1,0,4,0,0
moderator,MEDIUM,1,0,5,0,0
customer,MEDIUM,1,1,6,0,0
moderator,LOW,0,1,5,0,0
moderator,HIGH,1,0,5,0,2
customer,LOW,1,1,2,0,0
customer,LOW,1,1,1,0,0
customer,MEDIUM,1,1,4,0,0
customer,LOW,1,1,4,0,0
customer,LOW,1,1,7,0,0
customer,LOW,1,1,4,0,0
customer,MEDIUM,1,1,2,0,0
customer,LOW,1,1,7,0,0
admin,MEDIUM,1,0,3,0,0
customer,LOW,0,1,4,0,0
customer,LOW,1,1,3,0,0
moderator,MEDIUM,1,0,5,0,0
customer,MEDIUM,0,1,5,0,0
customer,LOW,0,1,5,0,0
customer,LOW,1,1,3,0,0
customer,LOW,1,1,2,0,0
moderator,LOW,0,0,22,6,2
customer,LOW,1,1,6,0,0
customer,LOW,1,1,7,0,0
customer,LOW,1,1,4,6,2
moderator,LOW,1,1,6,0,0
customer,LOW,1,1,2,0,0
customer,LOW,1,1,40,0,2
customer,LOW,1,1,4,4,0
customer,HIGH,0,1,4,0,0
customer,LOW,1,1,3,0,0
moderator,LOW,1,0,4,0,0
customer,HIGH,1,1,7,0,0
customer,MEDIUM,1,1,2,6,2
customer,LOW,1,1,5,0,0
customer,HIGH,1,1,7,0,0
admin,LOW,1,0,2,0,0
customer,LOW,1,1,3,0,0
moderator,LOW,1,0,5,0,0
customer,MEDIUM,1,1,7,2,0
moderator,MEDIUM,1,0,3,3,0
customer,MEDIUM,1,1,2,1,0
customer,MEDIUM,1,1,6,0,0
customer,LOW,1,0,2,0,1
moderator,HIGH,1,0,3,0,2
customer,LOW,0,1,4,0,0
admin,HIGH,1,0,52,0,1
customer,LOW,0,1,54,0,2
customer,LOW,1,0,43,0,2
customer,LOW,1,1,3,0,0
moderator,LOW,0,0,44,0,2
customer,MEDIUM,1,1,6,0,0
moderator,LOW,0,0,0,0,0
customer,MEDIUM,1,1,3,0,0
customer,MEDIUM,1,1,0,0,0
customer,LOW,1,0,58,0,2
customer,MEDIUM,0,1,5,5,2
moderator,LOW,1,0,3,0,0
customer,LOW,1,1,7,0,0
customer,MEDIUM,1,1,5,0,0
customer,MEDIUM,1,1,5,0,0
moderator,LOW,0,0,1,0,0
customer,LOW,1,0,4,0,1
customer,MEDIUM,1,1,5,0,0
customer,MEDIUM,1,1,6,0,0
moderator,LOW,1,0,6,0,0
customer,LOW,1,1,2,0,0
customer,LOW,1,1,3,0,0
customer,LOW,0,1,3,0,0
customer,LOW,1,1,2,1,0
customer,LOW,1,1,4,0,0
customer,LOW,1,1,5,0,0
customer,LOW,1,1,6,0,0
moderator,LOW,1,0,4,0,0
customer,LOW,1,1,3,0,0
customer,LOW,1,1,5,0,0
moderator,MEDIUM,1,1,4,0,0
customer,LOW,1,1,2,0,0
admin,HIGH,1,0,7,0,0
customer,LOW,1,1,2,1,0
customer,LOW,1,1,3,0,0
customer,LOW,1,1,16,0,2
customer,LOW,1,1,7,0,0
customer,LOW,1,1,5,0,0
customer,LOW,0,1,37,0,2
moderator,LOW,1,0,7,0,0
customer,LOW,1,1,3,0,0
moderator,LOW,1,0,9,0,0
customer,MEDIUM,0,1,6,0,0
customer,MEDIUM,1,1,6,0,0
moderator,LOW,1,0,6,0,0
customer,MEDIUM,1,1,7,0,0
customer,LOW,1,1,3,0,0
customer,MEDIUM,1,1,3,0,0
customer,LOW,1,1,3,0,0
moderator,LOW,1,1,1,1,0
customer,LOW,1,1,3,0,0
customer,HIGH,1,1,4,1,0
admin,LOW,1,0,4,0,0
customer,LOW,1,1,6,0,0
customer,LOW,1,1,2,0,0
customer,MEDIUM,0,1,5,0,0
customer,LOW,1,1,2,0,0
customer,MEDIUM,1,1,6,0,0
moderator,LOW,0,1,4,0,0
customer,LOW,1,1,4,0,0
customer,HIGH,0,1,1,0,0
customer,MEDIUM,1,1,1,0,0
customer,LOW,1,1,3,0,0
customer,LOW,1,1,4,0,0
customer,LOW,1,1,0,0,0
moderator,LOW,0,0,3,7,2
customer,LOW,1,1,5,0,0
moderator,LOW,1,0,3,0,0
customer,LOW,1,1,3,0,0
customer,MEDIUM,1,1,4,3,0
customer,LOW,1,1,4,2,0
customer,HIGH,1,1,3,0,0
moderator,HIGH,1,0,4,0,2
customer,MEDIUM,1,1,6,0,0
customer,LOW,1,1,3,0,0
customer,LOW,0,1,6,0,0
moderator,MEDIUM,1,0,5,0,0
customer,MEDIUM,1,1,1,0,0
moderator,LOW,1,1,2,0,0
customer,LOW,1,1,3,0,0
customer,LOW,1,1,9,0,1
customer,HIGH,1,1,4,0,0
moderator,LOW,1,0,4,1,0
moderator,LOW,0,0,3,0,0
customer,MEDIUM,1,1,5,2,0
customer,LOW,1,1,3,0,0
customer,LOW,0,1,4,0,0
customer,LOW,0,1,7,0,0
moderator,MEDIUM,1,0,4,0,0
customer,LOW,1,1,7,0,0
customer,LOW,1,1,7,0,0
customer,LOW,1,1,3,0,0
moderator,LOW,1,0,2,1,0
customer,LOW,1,1,9,0,1
customer,LOW,1,1,7,0,0
customer,LOW,0,1,6,1,2
customer,LOW,1,1,7,0,0
customer,MEDIUM,1,1,7,0,0
customer,LOW,1,1,3,0,0
moderator,LOW,1,0,3,7,2
customer,LOW,1,1,5,0,0
customer,HIGH,1,1,6,0,0
moderator,MEDIUM,1,1,5,0,0
customer,LOW,1,1,3,0,0
customer,MEDIUM,1,1,4,0,0
customer,LOW,1,1,1,0,0
customer,MEDIUM,1,1,7,0,0
customer,LOW,1,1,4,0,0
customer,LOW,1,1,1,0,0
customer,LOW,1,1,6,0,0
moderator,MEDIUM,1,0,2,0,0
customer,LOW,0,1,5,0,0
customer,LOW,1,1,3,0,0
customer,MEDIUM,1,1,2,0,0
customer,LOW,1,1,1,0,0
customer,MEDIUM,1,1,5,0,0
customer,LOW,0,1,3,0,0
customer,HIGH,0,1,2,0,0
moderator,LOW,1,0,4,0,0
customer,LOW,0,1,3,0,0
customer,MEDIUM,1,1,5,0,0
customer,LOW,1,1,5,0,0
customer,MEDIUM,0,1,45,0,2
customer,LOW,1,1,3,4,0
customer,HIGH,1,1,3,0,0
customer,MEDIUM,1,1,3,0,0
customer,LOW,1,1,2,0,0
customer,LOW,0,1,4,0,0
customer,LOW,1,1,5,0,0
customer,MEDIUM,1,1,3,0,0
customer,LOW,1,1,2,0,0
customer,LOW,0,1,3,0,0
admin,MEDIUM,0,1,6,0,0
admin,MEDIUM,1,0,6,0,0
customer,LOW,0,1,2,4,0
customer,MEDIUM,1,1,8,0,0
customer,LOW,1,1,3,1,0
customer,HIGH,1,0,5,0,2
customer,LOW,1,0,6,0,1
customer,LOW,1,1,4,0,0
customer,HIGH,0,1,34,0,2
customer,LOW,1,1,4,0,0
moderator,LOW,1,0,9,0,0
customer,MEDIUM,1,1,2,0,0
admin,LOW,1,0,4,0,0
customer,MEDIUM,1,1,3,0,0
customer,HIGH,1,1,3,0,0
customer,HIGH,1,1,2,0,0
moderator,LOW,1,0,3,1,0
customer,MEDIUM,0,1,4,2,0
customer,LOW,1,1,6,0,0
customer,LOW,1,1,4,0,0
customer,MEDIUM,1,1,2,7,2
customer,LOW,0,1,5,1,0
customer,LOW,0,1,3,0,0
customer,LOW,1,1,4,0,0
customer,LOW,1,1,2,0,0
moderator,LOW,1,0,4,0,0
customer,LOW,1,0,6,0,1
moderator,LOW,1,1,5,0,0
customer,LOW,1,1,6,0,0
customer,MEDIUM,1,1,5,0,0
customer,LOW,1,1,6,0,0
customer,MEDIUM,1,1,3,0,0
customer,LOW,1,1,4,0,0
moderator,MEDIUM,1,0,63,0,2
customer,LOW,1,1,5,4,0
customer,LOW,0,1,2,0,0
customer,LOW,1,1,7,0,0
customer,LOW,1,1,3,0,0
moderator,LOW,1,1,5,0,0
customer,MEDIUM,1,1,6,0,0
customer,MEDIUM,1,1,4,0,0
customer,LOW,1,1,3,0,0
customer,LOW,1,1,3,0,0
moderator,MEDIUM,1,0,4,4,0
moderator,MEDIUM,1,0,2,0,0
customer,MEDIUM,1,1,5,0,0
customer,MEDIUM,1,1,3,0,0
customer,LOW,1,1,3,0,0
customer,MEDIUM,1,1,3,0,0
admin,LOW,0,1,4,0,0
customer,LOW,0,1,3,0,0
customer,HIGH,1,1,3,0,0
moderator,MEDIUM,1,0,4,0,0
customer,LOW,1,1,8,0,0
customer,MEDIUM,1,1,2,0,0
customer,LOW,1,1,3,0,0
customer,LOW,1,1,4,0,0
customer,LOW,1,1,5,0,0
customer,LOW,1,1,2,0,0
moderator,LOW,1,0,5,0,0
customer,HIGH,1,1,8,0,0
customer,MEDIUM,0,1,3,0,0
customer,MEDIUM,1,1,3,0,0
moderator,LOW,1,0,5,0,0
customer,LOW,1,1,3,0,0
customer,MEDIUM,1,1,7,0,0
customer,LOW,1,1,6,0,0
customer,LOW,1,1,5,0,0
customer,LOW,1,1,7,0,0
customer,LOW,1,1,7,7,2
customer,HIGH,1,1,1,0,0
admin,MEDIUM,1,0,8,0,0
moderator,LOW,1,0,4,0,0
customer,LOW,1,1,6,0,0
customer,MEDIUM,1,1,2,0,0
moderator,MEDIUM,1,0,7,0,0
admin,MEDIUM,1,0,0,0,0
customer,LOW,1,0,6,0,1
customer,HIGH,1,1,3,0,0
customer,LOW,1,1,2,0,0
moderator,HIGH,0,0,2,0,2
customer,LOW,1,1,4,0,0
customer,LOW,1,1,6,1,0
customer,MEDIUM,1,1,8,0,0
moderator,HIGH,1,0,5,5,2
moderator,LOW,1,0,24,0,1
moderator,MEDIUM,1,0,3,0,0
customer,LOW,1,1,4,0,0
customer,LOW,1,1,5,0,0
customer,LOW,0,1,5,0,0
customer,LOW,1,1,4,0,0
customer,LOW,1,1,4,0,0
customer,LOW,1,1,4,0,0
moderator,LOW,1,0,5,0,0
customer,MEDIUM,1,1,3,0,0
customer,LOW,1,1,3,0,0
customer,HIGH,1,1,2,0,0
moderator,LOW,1,1,10,0,0
customer,MEDIUM,1,1,9,1,1
customer,LOW,0,1,5,0,0
customer,LOW,0,1,5,0,0
customer,MEDIUM,1,1,0,0,0
customer,LOW,1,1,1,0,0
customer,MEDIUM,1,1,1,0,0
customer,LOW,1,1,3,2,0
customer,LOW,0,1,5,5,2
customer,LOW,0,1,3,0,0
admin,MEDIUM,0,0,2,0,0
admin,LOW,0,0,4,0,0
moderator,LOW,1,0,0,0,0
admin,LOW,1,1,2,0,0
customer,HIGH,1,1,5,0,0
customer,LOW,1,1,5,4,0
admin,LOW,1,0,4,0,0
customer,LOW,1,1,4,1,0
customer,MEDIUM,1,1,7,0,0
customer,MEDIUM,1,1,3,0,0
customer,HIGH,1,1,3,0,0
customer,LOW,0,1,8,0,0
customer,LOW,1,1,1,0,0
moderator,MEDIUM,0,0,5,0,1
admin,LOW,1,1,4,1,0
customer,LOW,1,1,4,0,0
moderator,LOW,1,0,5,0,0
customer,MEDIUM,0,1,5,0,0
moderator,LOW,0,0,25,0,1
admin,LOW,1,0,5,0,0
customer,LOW,1,1,2,0,0
customer,MEDIUM,1,0,5,0,2
customer,HIGH,1,1,5,0,0
customer,MEDIUM,1,1,3,0,0
customer,LOW,1,1,3,0,0
customer,LOW,1,1,3,0,0
customer,MEDIUM,0,1,5,0,0
moderator,LOW,1,0,2,0,0
customer,LOW,1,1,3,0,0
customer,HIGH,1,0,4,0,2
customer,LOW,1,1,1,1,0
customer,MEDIUM,1,1,5,0,0
moderator,MEDIUM,1,0,8,0,0
customer,MEDIUM,0,1,1,0,0
moderator,MEDIUM,1,0,3,0,0
customer,LOW,0,1,4,0,0
customer,LOW,1,1,3,0,0
customer,MEDIUM,0,1,5,0,0
customer,LOW,1,1,4,0,0
customer,LOW,0,1,3,1,0
customer,MEDIUM,1,1,4,0,0
moderator,MEDIUM,1,0,5,0,0
customer,HIGH,1,1,4,0,0
customer,LOW,0,1,1,0,0
customer,LOW,1,1,3,0,0
customer,LOW,0,1,5,0,0
customer,LOW,1,1,2,0,0
moderator,LOW,1,0,3,0,1
customer,MEDIUM,1,1,3,0,0
customer,LOW,1,1,4,0,0
admin,LOW,1,0,8,0,0
moderator,HIGH,1,0,3,0,2
customer,MEDIUM,1,1,5,0,0
customer,LOW,1,1,3,0,0
customer,LOW,1,1,2,0,0
customer,MEDIUM,1,1,8,0,0
customer,LOW,1,1,2,0,0
customer,LOW,1,1,6,0,0
moderator,MEDIUM,1,0,3,0,0
customer,LOW,1,1,1,0,0
moderator,LOW,1,0,0,0,0
moderator,LOW,1,1,3,0,0
customer,MEDIUM,1,1,4,2,0
admin,LOW,0,1,3,0,0
customer,LOW,1,1,5,7,2
customer,LOW,1,1,4,0,0
customer,MEDIUM,1,1,6,0,0
customer,MEDIUM,1,1,5,2,0
customer,LOW,1,1,3,0,0
admin,LOW,1,0,3,0,0
moderator,LOW,1,1,55,0,1
customer,HIGH,1,1,2,0,0
customer,LOW,1,1,2,0,0
customer,LOW,1,1,1,0,0
customer,MEDIUM,1,1,6,0,0
customer,LOW,1,1,3,1,0
moderator,LOW,1,0,3,0,0
customer,LOW,0,1,3,0,0
admin,HIGH,1,1,4,5,2
customer,HIGH,1,1,4,0,0
moderator,MEDIUM,1,0,4,0,0
customer,MEDIUM,1,1,2,1,0
customer,LOW,1,1,6,0,0
moderator,LOW,1,0,3,0,0
customer,LOW,1,1,2,0,0
customer,LOW,1,1,8,0,0
customer,LOW,1,1,3,0,0
customer,MEDIUM,1,1,3,0,0
moderator,MEDIUM,0,0,3,0,1
customer,MEDIUM,0,1,8,0,0
customer,MEDIUM,1,0,8,0,2
customer,LOW,1,1,4,0,0
admin,LOW,1,0,3,0,0
moderator,LOW,1,1,4,1,0
customer,MEDIUM,1,1,4,0,0
moderator,MEDIUM,1,0,5,0,0
customer,LOW,0,1,7,0,0
customer,LOW,1,1,5,0,0
customer,MEDIUM,1,1,9,0,1
customer,LOW,1,1,3,0,0
customer,LOW,1,1,0,3,0
customer,LOW,1,1,9,0,1
customer,MEDIUM,1,1,0,0,0
customer,MEDIUM,1,1,4,0,0
customer,HIGH,1,1,2,1,0
customer,LOW,1,1,7,0,0
customer,MEDIUM,1,1,5,0,0
customer,LOW,1,1,4,0,0
moderator,MEDIUM,1,0,3,0,0
customer,MEDIUM,1,1,7,0,0
customer,MEDIUM,0,1,6,0,0
admin,MEDIUM,1,0,7,0,0
customer,LOW,1,1,4,0,0
customer,LOW,0,1,3,3,0
moderator,LOW,1,0,5,0,0
customer,LOW,1,1,2,0,0
customer,LOW,0,1,7,0,0
moderator,LOW,1,0,5,0,0
customer,MEDIUM,1,1,7,0,0
customer,LOW,1,1,2,2,0
moderator,LOW,0,0,7,0,0
admin,MEDIUM,0,0,9,0,0
customer,LOW,0,1,4,0,0
customer,LOW,1,1,6,0,0
customer,LOW,1,1,7,0,1
customer,MEDIUM,1,1,5,0,0
customer,LOW,1,1,5,0,0
customer,LOW,1,1,5,0,0
customer,LOW,1,1,5,0,0
customer,LOW,1,1,3,0,0
moderator,LOW,1,0,3,0,0
customer,LOW,1,1,5,0,0
customer,MEDIUM,1,1,3,3,0
customer,LOW,0,1,2,0,0
moderator,MEDIUM,0,1,2,0,1
customer,LOW,1,1,5,0,0
customer,HIGH,1,1,5,0,0
customer,LOW,0,1,7,0,0
customer,HIGH,1,1,6,0,0
moderator,LOW,1,0,3,0,1
customer,LOW,1,1,2,1,0
customer,MEDIUM,1,1,1,2,0
customer,LOW,1,1,6,0,0
customer,LOW,1,1,3,0,0
admin,LOW,1,0,1,0,0
customer,HIGH,1,1,2,0,0
customer,LOW,1,1,0,0,0
customer,MEDIUM,1,1,3,0,0
customer,HIGH,1,1,3,0,0
customer,MEDIUM,1,1,5,0,0
customer,MEDIUM,1,1,1,0,0
admin,HIGH,1,1,4,0,0
moderator,LOW,1,0,0,2,0
customer,LOW,1,1,25,0,2
moderator,LOW,1,0,7,0,0
customer,LOW,1,1,2,0,0
customer,MEDIUM,1,1,2,0,0
moderator,LOW,1,1,5,0,0
customer,MEDIUM,1,1,7,2,0
customer,LOW,1,1,6,0,0
customer,LOW,1,1,5,0,0
customer,MEDIUM,1,1,9,0,1
customer,LOW,1,1,4,5,2
customer,LOW,1,1,5,7,2
customer,LOW,1,1,4,0,0
customer,LOW,1,1,6,0,0
moderator,LOW,1,0,5,0,0
admin,MEDIUM,1,0,25,0,1
customer,LOW,0,1,4,0,0
customer,LOW,1,1,2,0,0
customer,LOW,1,1,3,0,0
customer,LOW,1,1,2,0,0
customer,LOW,1,1,4,0,0
moderator,MEDIUM,1,1,7,0,0
moderator,HIGH,1,0,4,0,2
customer,HIGH,1,1,3,0,0
customer,LOW,1,1,6,0,0
customer,LOW,1,1,1,0,0
customer,MEDIUM,1,1,24,0,2
customer,LOW,0,1,5,0,0
customer,LOW,1,1,8,0,0
customer,LOW,1,1,3,0,0
admin,LOW,1,0,4,0,0
customer,MEDIUM,1,1,6,1,0
moderator,LOW,0,0,15,0,0
moderator,LOW,1,1,3,0,0
customer,LOW,1,1,3,0,0
customer,LOW,1,1,2,0,0
customer,MEDIUM,1,1,3,0,0
customer,LOW,1,1,2,0,0
moderator,LOW,1,0,2,4,0
moderator,MEDIUM,1,0,0,0,0
customer,HIGH,0,1,5,0,0
customer,LOW,1,1,8,0,0
customer,HIGH,1,1,4,0,0
moderator,LOW,1,0,4,7,2
customer,HIGH,1,1,4,0,0
moderator,MEDIUM,1,0,2,0,0
moderator,MEDIUM,0,0,5,0,1
customer,MEDIUM,1,1,3,3,0
customer,LOW,0,1,3,0,0
customer,LOW,1,1,4,0,0
customer,LOW,1,1,6,0,0
moderator,MEDIUM,1,0,4,0,0
customer,LOW,0,0,4,0,1
customer,MEDIUM,1,1,1,3,0
moderator,HIGH,1,0,5,0,2
customer,MEDIUM,1,1,0,0,0
moderator,LOW,1,0,4,4,0
customer,MEDIUM,1,1,3,0,0
moderator,LOW,1,0,2,0,0
moderator,LOW,1,0,2,0,0
customer,MEDIUM,1,1,3,0,0
customer,HIGH,1,1,8,0,0
customer,LOW,1,1,7,0,0
customer,MEDIUM,1,1,3,0,0
moderator,MEDIUM,1,0,5,2,0
moderator,MEDIUM,1,1,64,2,1
customer,HIGH,1,1,2,0,0
customer,HIGH,1,1,4,0,0
customer,LOW,1,1,4,0,0
customer,LOW,1,1,7,0,0
customer,MEDIUM,1,1,4,0,0
customer,LOW,1,1,5,0,0
customer,LOW,1,1,4,0,0
customer,LOW,1,1,7,0,0
customer,MEDIUM,1,1,4,0,0
customer,LOW,1,1,3,0,0
customer,LOW,1,1,3,4,0
customer,LOW,1,1,6,0,2
customer,LOW,0,1,0,0,0
customer,MEDIUM,0,1,3,0,0
customer,MEDIUM,1,1,3,0,0
moderator,LOW,1,0,5,0,0
customer,LOW,1,1,3,0,0
moderator,LOW,1,0,3,0,0
customer,LOW,1,1,5,0,0
customer,LOW,1,1,6,0,0
customer,MEDIUM,1,1,4,0,0
moderator,LOW,1,0,5,0,0
customer,HIGH,1,1,5,0,0
customer,LOW,1,1,1,0,0
moderator,LOW,0,1,5,0,0
moderator,MEDIUM,0,1,2,0,1
moderator,MEDIUM,1,0,4,0,0
customer,LOW,1,1,62,0,2
customer,MEDIUM,1,1,1,0,0
moderator,HIGH,0,0,4,3,2
customer,LOW,0,1,7,0,0
customer,LOW,1,1,4,0,0
customer,HIGH,1,1,2,0,0
customer,MEDIUM,1,1,5,0,0
customer,MEDIUM,1,1,6,0,0
customer,LOW,1,0,8,0,1
customer,MEDIUM,1,1,1,0,0
moderator,LOW,1,0,4,0,0
customer,LOW,1,1,4,0,0
moderator,MEDIUM,1,0,8,1,0
customer,LOW,1,1,6,0,0
moderator,HIGH,1,0,8,0,2
customer,LOW,1,1,4,0,0
customer,MEDIUM,1,1,5,0,0
admin,MEDIUM,1,0,4,0,0
moderator,LOW,1,0,7,0,0
customer,LOW,1,1,5,0,0
moderator,MEDIUM,1,0,5,0,0
customer,LOW,1,1,5,1,0
customer,MEDIUM,0,1,1,0,0
customer,LOW,1,1,5,0,0
customer,LOW,1,1,5,0,0
customer,LOW,1,1,5,0,0
customer,MEDIUM,1,0,4,1,2
customer,LOW,1,1,38,0,2
customer,MEDIUM,1,1,3,0,0
customer,LOW,1,1,6,0,0
customer,LOW,1,1,3,0,0
moderator,HIGH,1,0,3,0,2
customer,MEDIUM,0,1,6,0,0
customer,MEDIUM,1,1,5,0,0
moderator,LOW,0,0,2,0,0
customer,MEDIUM,1,1,8,0,0
customer,MEDIUM,1,1,6,0,1
moderator,LOW,0,0,5,0,0
customer,LOW,1,1,7,0,0
customer,LOW,1,1,5,1,0
customer,HIGH,0,1,4,0,0
customer,MEDIUM,1,1,5,0,0
customer,HIGH,0,1,4,2,0
customer,LOW,1,1,5,0,0
customer,LOW,1,1,4,0,0
moderator,LOW,0,0,5,0,0
customer,LOW,1,1,2,0,0
customer,MEDIUM,1,1,2,0,0
customer,LOW,0,1,4,0,0
customer,LOW,1,1,2,0,0
customer,MEDIUM,1,1,2,0,0
moderator,MEDIUM,0,0,7,0,1
customer,LOW,1,1,1,0,0
customer,LOW,1,1,3,0,0
customer,HIGH,1,1,2,0,0
customer,LOW,1,1,4,0,0
customer,LOW,0,1,4,0,0
customer,HIGH,0,1,6,0,0
customer,MEDIUM,0,1,7,0,0
customer,MEDIUM,1,1,6,0,0
customer,MEDIUM,1,1,5,0,0
customer,MEDIUM,1,0,3,0,2
customer,HIGH,1,1,5,3,0
customer,LOW,1,1,4,0,0
customer,LOW,1,1,5,0,0
customer,LOW,1,1,3,0,0
customer,LOW,1,1,3,0,0
moderator,LOW,1,0,1,0,0
moderator,LOW,0,0,2,0,0
customer,LOW,1,1,3,0,0
customer,MEDIUM,1,1,3,0,0
moderator,LOW,1,0,1,0,0
customer,LOW,1,1,8,0,0
customer,HIGH,1,1,6,2,0
customer,HIGH,1,1,5,0,0
customer,LOW,1,1,3,0,0
customer,LOW,1,1,7,0,0
moderator,LOW,1,0,6,0,0
customer,LOW,1,1,5,0,0
customer,HIGH,1,1,5,0,0
customer,LOW,0,1,4,0,1
customer,LOW,1,1,3,0,0
customer,LOW,1,1,3,0,0
moderator,LOW,1,0,11,0,0
customer,MEDIUM,1,1,2,0,0
customer,LOW,1,1,4,5,2
moderator,LOW,1,0,1,0,0
customer,MEDIUM,1,1,4,0,0
admin,LOW,1,0,3,0,0
customer,HIGH,1,1,1,0,0
customer,LOW,1,1,4,0,0
customer,LOW,1,1,35,0,2
customer,MEDIUM,1,1,6,0,0
moderator,LOW,1,0,62,4,2
customer,HIGH,1,1,8,0,0
customer,LOW,0,1,4,0,0
customer,MEDIUM,1,1,5,0,0
customer,LOW,0,0,5,0,1
customer,MEDIUM,1,1,4,0,0
customer,LOW,0,1,4,0,0
customer,LOW,1,1,63,1,2
customer,MEDIUM,0,1,5,0,0
customer,MEDIUM,1,1,6,0,0
customer,HIGH,1,1,6,0,0
customer,LOW,1,1,6,2,0
customer,LOW,1,1,0,0,0
customer,LOW,1,1,4,0,0
moderator,MEDIUM,1,0,2,1,0
customer,LOW,1,1,6,0,0
customer,LOW,1,1,7,0,0
customer,HIGH,1,1,2,0,0
customer,MEDIUM,0,1,4,0,0
customer,LOW,1,1,6,0,0
customer,LOW,1,1,3,2,0
moderator,LOW,1,1,4,0,0
moderator,LOW,1,0,4,0,0
admin,LOW,1,0,3,0,0
customer,LOW,0,1,5,0,0
moderator,LOW,0,0,3,0,0
customer,MEDIUM,1,1,3,0,0
customer,MEDIUM,1,1,8,0,0
customer,MEDIUM,1,1,4,0,0
customer,MEDIUM,1,1,2,0,0
customer,MEDIUM,1,1,4,0,0
customer,MEDIUM,1,1,5,0,0
customer,HIGH,1,1,5,0,0
customer,MEDIUM,1,1,3,1,0
customer,LOW,1,1,6,0,0
customer,MEDIUM,1,1,4,0,0
customer,LOW,1,1,6,3,0
moderator,HIGH,1,0,4,0,2
moderator,LOW,1,1,4,0,0
customer,LOW,1,1,3,0,0
customer,LOW,0,1,8,0,0
customer,LOW,1,1,2,0,0
customer,LOW,1,1,40,0,2
customer,LOW,1,1,5,0,0
customer,LOW,0,1,5,0,0
customer,LOW,1,1,1,0,0
moderator,LOW,1,0,3,0,0
moderator,MEDIUM,1,0,3,0,1
customer,LOW,1,1,5,0,0
customer,LOW,1,1,2,0,0
customer,LOW,0,1,45,0,2
customer,LOW,1,1,4,0,0
moderator,LOW,1,0,7,0,0
customer,MEDIUM,1,1,5,1,0
customer,LOW,1,1,3,3,0
customer,LOW,1,1,7,0,0
customer,MEDIUM,1,1,37,1,2
customer,LOW,1,1,2,0,0
customer,LOW,1,1,3,0,0
moderator,LOW,1,0,9,0,0
customer,LOW,1,1,6,0,0
moderator,LOW,1,1,3,0,0
customer,LOW,1,1,4,0,0
admin,LOW,1,0,4,0,0
customer,MEDIUM,1,1,3,0,0
moderator,MEDIUM,1,0,31,0,2
moderator,LOW,1,0,5,0,0
customer,MEDIUM,1,1,1,0,0
customer,MEDIUM,0,1,7,0,0
moderator,LOW,1,0,10,5,2
customer,MEDIUM,0,1,4,0,0
customer,MEDIUM,1,1,4,0,0
customer,MEDIUM,1,1,5,0,0
customer,MEDIUM,1,1,3,0,0
customer,LOW,1,1,6,0,0
customer,MEDIUM,1,1,3,0,0
customer,MEDIUM,1,1,2,0,0
customer,MEDIUM,1,1,4,0,0
customer,MEDIUM,1,1,3,0,0
customer,LOW,1,1,1,0,0
customer,MEDIUM,1,1,6,0,0
moderator,MEDIUM,0,0,8,0,1
moderator,LOW,1,0,3,0,0
customer,LOW,1,1,4,0,0
customer,HIGH,1,1,5,0,0
customer,LOW,0,1,3,0,0
customer,MEDIUM,0,1,3,1,0
customer,LOW,1,1,1,0,0
customer,LOW,1,1,39,0,2
customer,MEDIUM,1,1,2,0,0
moderator,LOW,1,0,3,0,0
customer,LOW,1,1,5,0,0
moderator,LOW,0,0,4,0,0
moderator,LOW,1,1,11,3,0
customer,LOW,1,1,5,0,2
customer,LOW,1,1,6,0,0
moderator,LOW,1,0,4,0,0
customer,LOW,1,1,4,0,0
customer,LOW,1,1,3,0,0
customer,MEDIUM,1,1,2,0,0
customer,MEDIUM,1,1,5,0,0
customer,HIGH,0,1,57,0,2
customer,MEDIUM,1,1,2,0,0
customer,MEDIUM,1,1,6,0,0
customer,HIGH,1,1,3,0,0
customer,LOW,0,1,4,0,0
customer,HIGH,1,1,3,0,0
customer,LOW,1,1,0,0,0
customer,MEDIUM,1,1,4,0,0
customer,LOW,0,1,1,2,0
customer,LOW,1,1,55,0,2
customer,HIGH,1,1,3,0,0
admin,LOW,0,0,1,0,0
customer,LOW,1,1,4,1,0
moderator,LOW,0,0,0,0,0
moderator,LOW,1,0,3,0,0
admin,HIGH,0,0,3,0,0
customer,HIGH,1,1,5,0,0
customer,LOW,1,1,5,0,0
admin,MEDIUM,1,0,3,0,0
customer,LOW,0,1,4,0,0
moderator,LOW,1,0,5,0,0
moderator,LOW,1,0,4,2,0
customer,HIGH,1,1,1,0,0
customer,LOW,1,1,4,0,0
customer,LOW,1,1,3,0,0
customer,LOW,1,1,5,0,0
customer,MEDIUM,1,1,5,0,0
customer,MEDIUM,1,1,31,2,2
customer,LOW,1,1,2,0,0
customer,LOW,0,1,3,0,0
customer,LOW,1,1,5,0,0
admin,MEDIUM,0,1,6,0,0
customer,LOW,1,1,28,0,2
customer,LOW,1,1,7,0,0
customer,MEDIUM,1,1,3,0,0
customer,LOW,1,1,19,0,2
customer,LOW,1,1,2,0,0
admin,HIGH,1,0,2,0,0
customer,MEDIUM,0,1,4,0,0
customer,LOW,1,1,3,0,0
customer,LOW,1,1,7,0,0
moderator,LOW,1,0,45,0,2
customer,HIGH,1,0,8,0,2
customer,LOW,1,1,1,0,0
customer,MEDIUM,1,1,3,0,0
customer,LOW,0,1,7,0,0
moderator,LOW,1,0,3,0,0
customer,LOW,1,1,2,0,0
customer,LOW,1,1,3,1,0
customer,LOW,1,1,21,0,2
customer,HIGH,1,1,6,0,0
customer,MEDIUM,1,1,2,0,0
customer,MEDIUM,1,1,4,0,0
customer,MEDIUM,1,1,4,0,0
customer,MEDIUM,0,1,7,0,0
moderator,LOW,1,0,3,0,0
admin,LOW,1,0,0,0,0
moderator,LOW,0,0,8,0,0
customer,MEDIUM,1,1,6,0,0
customer,LOW,1,1,5,1,0
customer,MEDIUM,1,1,1,0,0
customer,LOW,0,1,9,0,1
customer,MEDIUM,1,1,4,1,0
customer,LOW,0,1,5,0,0
customer,HIGH,1,1,4,5,2
customer,LOW,0,1,4,1,0
customer,MEDIUM,1,1,2,0,0
moderator,LOW,0,1,1,0,0
customer,HIGH,1,1,5,0,0
customer,MEDIUM,1,1,2,0,0
customer,LOW,1,1,3,3,0
customer,HIGH,1,1,3,0,0
moderator,HIGH,1,0,4,0,2
customer,LOW,1,1,6,2,0
moderator,LOW,1,0,4,0,0
customer,LOW,1,1,7,0,0
customer,LOW,1,1,3,0,0
customer,MEDIUM,1,1,2,0,0
customer,LOW,0,1,2,0,0
customer,LOW,1,1,4,0,0
moderator,MEDIUM,1,0,10,0,0
customer,MEDIUM,1,1,5,0,0
moderator,HIGH,1,0,0,0,2
customer,LOW,0,1,8,0,0
customer,MEDIUM,1,1,5,2,0
customer,HIGH,1,1,3,0,0
customer,MEDIUM,1,1,5,0,0
customer,MEDIUM,0,1,2,0,0
admin,LOW,1,0,3,0,0
customer,LOW,1,0,2,0,1
customer,LOW,1,1,3,0,0
moderator,LOW,1,0,4,0,0
moderator,LOW,1,1,6,0,0
customer,LOW,1,1,1,0,0
moderator,HIGH,0,0,2,0,2
admin,HIGH,1,0,4,1,0
customer,MEDIUM,1,1,6,0,0
customer,MEDIUM,1,1,7,0,0
customer,HIGH,1,1,5,0,0
moderator,HIGH,1,0,4,0,2
customer,LOW,1,1,5,0,0
moderator,LOW,0,1,4,0,0
customer,HIGH,1,1,6,0,0
customer,LOW,1,1,5,0,0
customer,MEDIUM,0,1,2,0,0
customer,MEDIUM,1,1,4,0,0
customer,LOW,1,1,4,0,0
customer,HIGH,1,1,1,0,0
customer,HIGH,1,1,3,0,0
customer,LOW,1,1,6,0,0
customer,HIGH,1,1,2,0,0
customer,MEDIUM,0,1,4,0,0
customer,LOW,1,1,8,1,0
moderator,MEDIUM,1,0,3,0,0
customer,LOW,1,1,4,0,0
customer,LOW,1,1,0,0,0
moderator,LOW,0,0,2,0,0
admin,LOW,0,0,4,0,0
moderator,LOW,1,0,3,0,0
moderator,LOW,0,1,2,0,0
customer,LOW,1,1,4,0,0
customer,LOW,0,1,3,0,0
moderator,LOW,1,0,5,0,0
customer,LOW,1,1,4,2,0
customer,LOW,1,0,6,0,1
moderator,LOW,1,0,4,0,0
customer,LOW,0,1,3,0,0
customer,LOW,0,1,2,2,0
customer,MEDIUM,1,1,59,0,2
customer,MEDIUM,1,1,2,0,0
customer,LOW,1,1,5,0,0
customer,LOW,0,1,1,0,0
customer,LOW,1,1,5,0,0
moderator,MEDIUM,0,0,4,0,1
customer,LOW,1,1,4,0,0
customer,MEDIUM,1,1,5,0,0
customer,MEDIUM,0,1,8,0,0
customer,LOW,1,1,3,0,0
moderator,MEDIUM,1,0,1,2,0
customer,LOW,1,0,0,5,2
customer,MEDIUM,0,1,5,0,0
customer,LOW,1,1,39,0,2
customer,LOW,1,1,6,1,0
moderator,LOW,1,0,2,0,0
customer,HIGH,1,1,4,1,0
customer,LOW,1,1,5,0,0
customer,LOW,1,1,36,0,2
customer,LOW,1,1,1,0,0
customer,LOW,1,1,7,0,0
customer,LOW,1,1,5,0,0
moderator,LOW,1,0,4,0,0
moderator,LOW,1,0,5,2,0
admin,LOW,1,0,3,0,0
customer,HIGH,1,1,3,0,0
customer,LOW,0,1,4,8,2
customer,LOW,0,1,2,0,0
customer,LOW,1,1,5,0,0
customer,MEDIUM,1,1,4,0,0
customer,HIGH,1,1,6,0,0
customer,LOW,0,1,4,0,0
customer,LOW,1,1,3,0,0
customer,LOW,1,1,5,0,0
moderator,LOW,1,1,2,0,0
moderator,MEDIUM,1,0,3,0,0
customer,LOW,1,1,2,3,0
admin,LOW,1,0,4,0,0
customer,MEDIUM,0,1,4,0,0
customer,LOW,1,1,9,0,1
moderator,LOW,1,0,5,0,0
customer,LOW,1,1,4,0,0
customer,LOW,1,1,5,0,0
moderator,LOW,1,0,3,0,0
customer,MEDIUM,1,1,3,0,0
customer,LOW,0,1,48,0,2
customer,LOW,1,1,4,0,0
customer,MEDIUM,1,1,5,0,0
customer,MEDIUM,0,1,0,0,0
moderator,MEDIUM,1,0,7,0,0
moderator,LOW,0,0,1,0,0
customer,LOW,1,1,3,0,0
customer,LOW,0,1,5,0,0
customer,MEDIUM,0,1,4,4,0
moderator,MEDIUM,1,0,8,0,0
customer,LOW,0,1,1,4,0
customer,LOW,1,1,4,0,0
customer,LOW,1,1,3,0,0
moderator,LOW,0,0,7,0,0
moderator,HIGH,1,0,6,1,2
customer,LOW,1,1,1,0,0
customer,MEDIUM,0,1,2,0,0
customer,LOW,1,1,3,2,0
customer,LOW,1,1,4,0,0
customer,LOW,1,1,4,0,0
customer,LOW,0,1,3,0,0
customer,LOW,1,1,3,0,0
customer,MEDIUM,1,0,2,0,2
customer,MEDIUM,0,1,4,0,0
moderator,LOW,1,0,9,1,0
moderator,MEDIUM,1,0,5,0,0
moderator,LOW,1,0,4,0,0
customer,HIGH,1,1,10,0,1
customer,LOW,1,1,5,0,0
customer,LOW,0,1,3,0,0
customer,MEDIUM,1,1,5,0,0
customer,MEDIUM,1,0,2,0,2
customer,MEDIUM,1,1,4,0,0
admin,LOW,1,0,2,2,0
customer,MEDIUM,1,1,8,0,0
customer,LOW,1,1,29,0,2
customer,LOW,1,1,3,0,0
customer,MEDIUM,1,1,57,0,2
customer,MEDIUM,0,1,5,0,0
moderator,MEDIUM,1,0,6,0,0
customer,LOW,1,1,5,0,0
customer,LOW,0,1,3,0,0
moderator,LOW,1,0,3,0,0
moderator,LOW,1,0,3,0,0
customer,MEDIUM,1,1,3,0,0
customer,LOW,1,1,5,0,0
customer,MEDIUM,1,1,2,0,0
customer,HIGH,0,1,3,0,0
customer,LOW,1,1,2,0,0
customer,MEDIUM,1,1,4,3,0
customer,LOW,0,1,1,0,0
customer,LOW,0,1,3,0,0
customer,LOW,0,1,2,0,0
customer,HIGH,1,1,2,0,0
customer,LOW,1,1,6,0,0
customer,LOW,1,1,4,0,0
customer,LOW,0,1,7,0,0
moderator,LOW,1,0,6,0,0
customer,LOW,1,1,3,0,0
customer,HIGH,1,1,3,0,0
customer,HIGH,1,1,4,0,0
customer,HIGH,0,1,7,0,0
moderator,HIGH,1,0,6,6,2
moderator,LOW,1,0,2,0,0
moderator,MEDIUM,1,0,4,0,0
customer,LOW,1,1,5,2,0
customer,LOW,1,1,3,0,0
customer,LOW,1,1,5,0,0
customer,LOW,1,1,3,0,0
customer,MEDIUM,1,1,5,0,0
customer,MEDIUM,1,1,5,0,0
customer,LOW,1,1,5,0,0
moderator,LOW,0,0,6,0,0
customer,LOW,1,1,4,0,0
customer,MEDIUM,1,1,5,0,1
customer,LOW,1,1,5,0,0
moderator,LOW,1,0,3,0,0
moderator,MEDIUM,1,0,3,0,0
customer,MEDIUM,1,1,6,0,0
moderator,LOW,1,0,2,1,0
admin,MEDIUM,1,0,5,0,0
customer,LOW,0,1,1,0,0
admin,LOW,1,0,2,0,0
admin,MEDIUM,1,1,2,0,0
customer,MEDIUM,0,1,31,0,2
moderator,MEDIUM,1,0,8,0,0
customer,LOW,1,1,38,0,2
customer,MEDIUM,1,1,1,0,0
customer,LOW,1,1,4,0,0
customer,MEDIUM,1,1,6,0,0
customer,LOW,1,1,6,0,0
customer,MEDIUM,1,1,3,1,0
customer,HIGH,1,1,6,0,0
customer,MEDIUM,0,1,3,0,0
moderator,LOW,0,0,4,0,0
customer,LOW,1,1,5,0,0
customer,MEDIUM,1,1,4,0,0
customer,MEDIUM,0,1,6,0,0
customer,LOW,1,1,36,0,2
moderator,LOW,1,0,4,0,0
moderator,MEDIUM,1,0,4,7,2
customer,MEDIUM,1,1,4,0,0
customer,HIGH,1,1,26,1,2
customer,MEDIUM,1,1,2,0,0
customer,LOW,0,1,5,0,0
customer,LOW,1,1,2,0,0
moderator,LOW,1,0,3,0,0
customer,MEDIUM,1,1,3,0,0
customer,LOW,1,1,4,0,0
customer,LOW,1,1,6,0,0
moderator,MEDIUM,1,0,4,0,1
customer,MEDIUM,1,1,8,0,0
customer,HIGH,1,0,0,1,2
moderator,LOW,0,0,2,3,0
customer,MEDIUM,1,1,33,0,2
customer,LOW,0,1,8,0,0
customer,MEDIUM,1,1,7,0,0
customer,LOW,1,1,7,0,0
customer,MEDIUM,1,1,9,0,1
customer,LOW,1,1,1,0,0
customer,LOW,1,1,3,0,0
customer,LOW,1,1,8,0,0
customer,MEDIUM,1,1,9,1,1
customer,LOW,1,1,5,0,0
moderator,LOW,1,0,6,0,0
customer,LOW,1,1,3,0,0
customer,MEDIUM,0,1,3,0,0
admin,LOW,1,0,0,0,0
customer,LOW,1,1,2,0,0
customer,HIGH,1,1,6,0,0
customer,LOW,0,1,6,0,0
moderator,LOW,0,0,1,0,0
customer,MEDIUM,1,1,3,0,0
customer,MEDIUM,0,1,4,0,0
customer,LOW,1,1,2,0,0
customer,MEDIUM,0,1,4,1,0
moderator,MEDIUM,1,1,4,0,0
customer,MEDIUM,1,1,5,0,0
customer,HIGH,1,1,0,0,0
admin,MEDIUM,1,0,3,0,0
customer,MEDIUM,1,1,7,0,0
moderator,MEDIUM,0,0,7,0,1
moderator,LOW,1,1,5,2,0
customer,MEDIUM,1,1,3,0,0
moderator,MEDIUM,1,0,4,0,0
customer,MEDIUM,1,1,2,0,0
customer,LOW,1,1,59,6,2
customer,LOW,0,1,3,0,0
customer,HIGH,1,1,6,0,0
moderator,LOW,1,0,5,0,0
customer,HIGH,1,1,4,0,0
customer,MEDIUM,0,1,6,0,0
moderator,LOW,1,0,3,0,0
customer,MEDIUM,1,1,0,1,0
customer,LOW,1,1,5,0,0
customer,MEDIUM,1,1,5,0,0
customer,HIGH,1,1,4,0,0
customer,MEDIUM,1,1,3,0,0
customer,LOW,0,1,5,0,0
customer,LOW,1,1,1,1,0
customer,LOW,1,1,3,0,0
customer,MEDIUM,0,1,2,0,0
customer,MEDIUM,0,1,5,2,0
moderator,LOW,1,1,7,0,0
customer,LOW,1,1,3,0,0
customer,LOW,1,1,0,0,0
moderator,LOW,0,0,5,0,0
customer,LOW,0,1,3,1,0
customer,LOW,1,1,2,0,0
customer,LOW,1,1,2,0,0
customer,LOW,0,1,5,0,0
customer,MEDIUM,1,1,27,0,2
customer,LOW,1,1,3,0,0
customer,LOW,1,1,3,0,0
moderator,LOW,1,0,32,0,2
customer,LOW,1,1,6,0,0
customer,MEDIUM,1,1,4,0,0
moderator,LOW,0,0,5,0,0
customer,MEDIUM,1,1,5,0,0
customer,LOW,1,1,5,0,0
customer,LOW,1,1,5,5,2
customer,LOW,1,1,4,0,0
customer,LOW,1,1,5,0,0
customer,MEDIUM,1,1,5,0,0
customer,MEDIUM,1,1,4,0,0
customer,MEDIUM,1,1,31,0,2
customer,HIGH,0,1,2,0,0
moderator,LOW,1,0,2,0,0
customer,LOW,1,1,5,2,0
customer,MEDIUM,1,1,7,0,0
customer,MEDIUM,1,1,4,0,0
customer,MEDIUM,1,1,20,0,2
customer,LOW,0,1,5,0,0
customer,HIGH,1,1,1,0,0
customer,MEDIUM,0,1,9,0,1
customer,LOW,0,0,7,0,1
moderator,MEDIUM,0,0,7,0,1
customer,MEDIUM,1,1,4,0,0
customer,MEDIUM,1,1,4,0,0
customer,LOW,1,0,4,0,1
customer,MEDIUM,1,1,6,0,0
moderator,LOW,1,0,6,0,0
customer,LOW,1,1,51,0,2
customer,MEDIUM,1,0,3,0,2
customer,HIGH,1,1,4,0,0
customer,LOW,1,1,3,0,0
admin,LOW,0,0,4,0,0
customer,LOW,0,1,3,0,0
moderator,LOW,1,0,5,0,0
customer,HIGH,1,1,6,0,0
moderator,LOW,0,1,10,0,0
customer,HIGH,1,1,4,0,0
customer,LOW,1,0,1,0,1
admin,MEDIUM,1,0,4,0,0
customer,HIGH,1,1,8,0,1
moderator,LOW,1,0,52,0,2
customer,LOW,1,0,3,0,1
customer,MEDIUM,1,1,2,0,0
customer,LOW,1,1,9,0,1
customer,HIGH,1,1,2,0,0
customer,LOW,0,1,1,0,0
customer,HIGH,0,1,5,0,0
customer,LOW,1,1,2,0,0
moderator,MEDIUM,0,0,0,0,1
moderator,LOW,1,0,29,0,2
customer,LOW,1,1,9,0,1
customer,LOW,1,1,5,2,0
customer,LOW,1,1,6,0,0
customer,MEDIUM,0,1,4,0,0
customer,LOW,1,1,5,0,0
customer,LOW,0,1,2,0,0
customer,LOW,0,1,44,0,2
customer,MEDIUM,1,1,6,0,0
admin,LOW,1,0,5,0,0
moderator,MEDIUM,0,0,5,0,1
customer,LOW,1,1,7,0,0
customer,LOW,0,1,0,0,0
moderator,MEDIUM,1,0,4,0,0
moderator,LOW,1,0,2,0,0
moderator,LOW,1,0,5,1,0
customer,MEDIUM,0,0,2,0,2
customer,LOW,1,1,1,0,0
customer,LOW,0,1,5,0,0
moderator,MEDIUM,1,0,62,0,2
customer,LOW,1,1,8,0,0
customer,HIGH,1,1,7,0,0
customer,MEDIUM,1,1,3,0,0
customer,MEDIUM,1,1,3,0,0
customer,MEDIUM,1,1,4,0,0
customer,LOW,1,1,4,0,0
customer,MEDIUM,1,1,2,0,0
moderator,LOW,0,0,2,0,0
customer,MEDIUM,1,1,2,0,0
moderator,LOW,0,0,5,0,0
customer,MEDIUM,1,1,4,0,0
customer,LOW,1,1,4,0,0
customer,MEDIUM,0,1,7,1,0
customer,HIGH,1,1,5,0,0
moderator,LOW,1,0,5,2,0
customer,LOW,0,1,3,0,0
customer,LOW,1,1,3,0,0
customer,MEDIUM,1,1,36,0,2
customer,HIGH,1,1,6,0,0
moderator,LOW,1,0,7,0,0
moderator,LOW,1,0,4,0,0
moderator,MEDIUM,1,0,4,0,0
customer,HIGH,0,1,4,0,0
customer,MEDIUM,0,1,0,0,0
customer,LOW,1,1,5,0,0
customer,LOW,1,1,6,5,2
customer,MEDIUM,1,1,6,0,0
customer,LOW,1,1,3,0,0
admin,MEDIUM,1,0,4,0,0
customer,HIGH,1,1,5,0,0
moderator,MEDIUM,1,0,8,0,0
customer,HIGH,1,1,2,0,0
moderator,LOW,1,0,5,0,0
customer,HIGH,0,1,8,6,2
customer,LOW,0,1,3,0,0
customer,MEDIUM,0,1,0,0,0
customer,MEDIUM,0,0,2,0,2
customer,MEDIUM,1,1,3,0,0
moderator,MEDIUM,0,0,1,0,1
customer,LOW,1,1,4,0,0
customer,HIGH,1,1,4,0,0
moderator,LOW,0,0,1,0,0
customer,MEDIUM,1,0,1,0,2
customer,LOW,0,1,3,0,0
customer,MEDIUM,1,1,3,0,0
customer,MEDIUM,1,1,3,3,0
customer,MEDIUM,1,1,4,0,0
admin,LOW,1,0,3,0,0
customer,MEDIUM,1,1,3,0,0
customer,MEDIUM,1,1,63,0,2
moderator,LOW,1,0,1,0,0
customer,LOW,1,1,2,0,0
admin,LOW,0,0,3,0,0
moderator,LOW,1,0,4,0,0
customer,LOW,1,1,3,0,0
customer,MEDIUM,0,1,7,1,0
customer,LOW,1,1,1,0,0
customer,LOW,1,1,5,0,0
customer,LOW,1,1,4,0,0
customer,LOW,0,1,3,0,0
customer,MEDIUM,1,1,1,0,0
customer,MEDIUM,1,1,1,0,0
customer,LOW,0,1,3,0,0
customer,MEDIUM,1,1,48,0,2
customer,LOW,1,1,3,1,0
moderator,LOW,0,0,2,3,0
customer,LOW,1,1,7,2,0
moderator,LOW,1,0,2,0,0
customer,HIGH,1,1,46,0,2
customer,MEDIUM,1,1,1,0,0
customer,LOW,0,1,3,1,0
customer,LOW,1,1,3,0,0
customer,HIGH,1,1,11,0,1
customer,LOW,1,1,2,0,0
customer,LOW,1,1,6,0,0
customer,LOW,1,1,4,0,0
customer,HIGH,0,1,8,1,0
customer,MEDIUM,1,1,6,0,0
customer,LOW,1,1,4,0,0
moderator,MEDIUM,1,0,4,0,0
customer,LOW,1,1,22,1,2
customer,LOW,0,1,3,0,0
customer,LOW,0,1,39,0,2
moderator,MEDIUM,1,0,5,0,0
customer,MEDIUM,1,1,1,0,0
customer,HIGH,1,1,2,3,0
customer,MEDIUM,1,1,7,0,0
moderator,HIGH,0,0,4,0,2
customer,MEDIUM,1,1,2,0,0
customer,LOW,1,0,4,0,1
customer,HIGH,1,1,10,5,2
customer,HIGH,1,1,1,0,0
customer,LOW,1,1,0,0,0
customer,LOW,0,1,5,0,0
moderator,MEDIUM,1,0,6,0,0
moderator,MEDIUM,1,0,5,0,0
customer,LOW,0,1,1,0,0
customer,MEDIUM,1,1,2,0,0
customer,LOW,1,1,5,0,0
customer,MEDIUM,1,1,0,0,0
customer,LOW,1,1,8,0,0
customer,MEDIUM,1,1,3,0,0
customer,LOW,1,1,3,0,0
moderator,LOW,1,0,4,0,0
customer,LOW,0,1,1,0,0
customer,LOW,1,1,2,0,0
customer,HIGH,1,1,5,1,0
customer,MEDIUM,1,1,4,0,0
customer,LOW,1,1,6,0,0
customer,MEDIUM,1,1,0,1,0
customer,MEDIUM,1,1,7,0,0
customer,MEDIUM,1,1,3,0,0
customer,HIGH,0,1,3,0,0
customer,MEDIUM,1,1,4,0,0
moderator,MEDIUM,0,0,6,0,1
customer,LOW,1,1,4,0,0
customer,HIGH,1,1,1,0,0
customer,MEDIUM,1,1,8,0,0
customer,LOW,1,1,27,0,2
customer,MEDIUM,1,1,4,0,0
customer,HIGH,1,1,58,5,2
customer,LOW,1,1,4,0,0
customer,LOW,1,1,1,0,0
customer,LOW,1,1,2,1,0
customer,MEDIUM,1,1,6,7,2
customer,LOW,0,1,4,4,0
customer,LOW,1,1,6,0,0
customer,HIGH,1,1,7,0,0
customer,HIGH,1,1,2,0,0
customer,LOW,1,1,6,0,0
customer,MEDIUM,1,1,6,0,0
customer,LOW,1,1,3,0,0
customer,LOW,1,1,1,0,0
customer,LOW,0,1,4,0,1
customer,HIGH,1,1,5,0,0
moderator,LOW,1,0,5,0,0
customer,LOW,0,1,4,0,0
customer,LOW,1,1,6,0,0
customer,HIGH,0,1,6,0,0
customer,LOW,1,1,4,0,0
moderator,LOW,1,0,7,0,0
moderator,LOW,1,0,8,0,0
customer,LOW,1,1,6,0,1
customer,LOW,0,1,1,0,0
customer,LOW,1,1,5,0,0
moderator,LOW,0,1,5,0,0
customer,LOW,1,1,3,0,0
admin,MEDIUM,1,0,4,2,0
moderator,MEDIUM,1,0,4,0,0
admin,LOW,1,0,30,0,1
customer,HIGH,1,1,4,0,0
customer,MEDIUM,0,1,3,0,0
moderator,LOW,0,0,4,0,0
customer,LOW,1,1,3,0,0
customer,MEDIUM,1,1,4,3,0
customer,LOW,1,1,4,0,0
customer,LOW,1,0,5,1,1
admin,LOW,1,1,5,0,0
admin,MEDIUM,1,0,3,0,0
moderator,LOW,1,0,6,0,0
customer,HIGH,0,1,5,1,0
customer,LOW,1,1,3,0,0
customer,MEDIUM,1,0,2,0,2
moderator,MEDIUM,1,0,3,0,0
moderator,LOW,0,0,2,0,0
moderator,MEDIUM,1,0,3,0,0
customer,LOW,1,1,7,0,0
customer,MEDIUM,1,1,2,0,0
moderator,MEDIUM,1,0,8,4,0
customer,MEDIUM,1,0,3,0,2
customer,LOW,1,1,7,0,0
customer,LOW,1,1,6,0,0
customer,HIGH,1,1,1,0,0
customer,LOW,1,1,4,0,0
customer,LOW,1,1,5,0,0
customer,LOW,1,1,5,0,0
moderator,LOW,1,1,5,0,0
customer,MEDIUM,1,1,2,0,0
customer,LOW,1,1,6,1,0
customer,LOW,0,1,4,0,0
customer,HIGH,1,1,5,0,0
customer,LOW,1,1,3,0,0
customer,LOW,1,1,3,0,0
customer,MEDIUM,0,1,5,1,0
customer,MEDIUM,1,1,4,0,0
customer,HIGH,1,1,8,1,0
customer,LOW,1,1,5,3,0
moderator,LOW,0,0,3,0,0
customer,HIGH,1,1,2,0,0
customer,LOW,1,1,6,0,0
customer,LOW,1,1,7,1,0
moderator,LOW,1,1,6,0,0
customer,HIGH,1,1,4,0,0
customer,LOW,1,0,3,4,1
customer,LOW,1,1,7,0,0
customer,LOW,1,1,4,0,0
moderator,LOW,1,0,6,0,0
customer,MEDIUM,1,1,2,2,0
admin,LOW,0,0,20,0,1
customer,MEDIUM,1,1,3,0,0
moderator,LOW,0,0,6,0,0
moderator,LOW,1,0,2,0,0
customer,LOW,1,1,4,0,0
customer,MEDIUM,1,1,6,0,0
customer,MEDIUM,0,1,7,0,0
customer,LOW,1,1,2,0,0
moderator,HIGH,1,0,5,0,2
customer,LOW,1,1,6,0,0
customer,MEDIUM,1,0,2,0,2
moderator,HIGH,1,0,9,0,2
customer,HIGH,0,1,6,0,0
customer,LOW,1,1,2,0,0
customer,HIGH,1,1,2,0,0
customer,LOW,1,1,5,0,0
moderator,LOW,1,0,2,0,0
customer,MEDIUM,1,1,1,0,0
moderator,LOW,0,0,5,0,0
customer,LOW,1,1,3,0,0
moderator,LOW,1,0,4,0,0
customer,LOW,1,1,4,0,0
moderator,MEDIUM,0,0,3,0,1
customer,MEDIUM,1,1,26,0,2
customer,LOW,1,1,3,0,0
customer,LOW,1,1,2,0,0
customer,MEDIUM,0,0,2,0,2
customer,LOW,1,1,5,3,0
customer,LOW,1,1,8,0,0
customer,MEDIUM,1,1,6,0,0
moderator,LOW,1,0,5,0,0
moderator,MEDIUM,1,0,1,0,1
customer,LOW,0,1,4,0,0
customer,LOW,1,0,4,0,1
moderator,MEDIUM,0,1,2,0,1
customer,LOW,1,1,2,0,0
admin,LOW,0,0,6,0,0
customer,MEDIUM,1,1,6,0,0
customer,MEDIUM,0,1,2,0,0
customer,HIGH,0,1,3,0,0
customer,LOW,0,1,18,0,2
customer,MEDIUM,1,1,4,0,0
moderator,LOW,1,0,3,0,0
moderator,LOW,1,1,3,0,0
customer,LOW,1,1,2,0,0
customer,LOW,1,1,3,1,0
customer,LOW,1,1,8,0,0
moderator,LOW,1,0,6,0,0
customer,HIGH,0,1,3,0,0
customer,HIGH,1,1,2,0,0
customer,LOW,0,1,3,1,0
customer,LOW,1,0,4,0,1
moderator,HIGH,1,1,3,3,1
moderator,LOW,0,0,8,0,0
moderator,LOW,1,0,2,0,0
moderator,LOW,1,0,1,2,0
customer,MEDIUM,1,1,6,0,0
customer,MEDIUM,1,1,6,0,0
customer,LOW,1,1,3,0,0
customer,LOW,1,1,3,0,0
customer,LOW,1,1,1,0,0
customer,LOW,1,1,6,0,0
customer,HIGH,1,0,5,0,2
customer,LOW,1,1,6,0,0
customer,LOW,1,1,6,0,0
customer,LOW,0,1,12,0,1
customer,MEDIUM,1,1,19,0,2
customer,LOW,1,1,2,0,0
customer,LOW,1,1,4,0,0
customer,MEDIUM,0,1,6,0,0
customer,LOW,1,1,9,0,1
customer,MEDIUM,1,1,3,0,0
moderator,MEDIUM,1,0,6,0,0
customer,LOW,1,1,1,0,0
customer,MEDIUM,1,1,2,0,0
customer,LOW,1,0,5,0,1
moderator,LOW,1,0,3,0,0
admin,LOW,1,0,6,0,0
customer,LOW,0,1,3,0,0
moderator,LOW,0,0,4,0,0
customer,MEDIUM,0,1,5,0,0
customer,LOW,1,1,9,0,1
customer,MEDIUM,1,1,10,0,1
customer,LOW,1,1,6,2,0
customer,LOW,1,1,5,0,0
moderator,LOW,1,0,0,1,0
customer,LOW,1,1,1,0,0
customer,MEDIUM,0,1,52,0,2
customer,LOW,0,1,1,0,0
moderator,LOW,1,1,8,0,0
customer,LOW,1,1,5,0,0
customer,LOW,0,1,7,0,1
customer,LOW,0,1,3,2,2
customer,LOW,0,1,2,0,0
moderator,HIGH,1,0,5,0,2
customer,LOW,1,1,4,0,0
moderator,LOW,1,0,2,0,0
customer,MEDIUM,1,1,5,0,0
customer,LOW,1,0,4,0,1
customer,LOW,1,1,1,0,0
moderator,LOW,1,1,4,0,0
customer,MEDIUM,1,1,2,0,0
customer,LOW,1,0,5,0,1
customer,LOW,1,1,4,0,0
customer,LOW,1,1,7,0,0
customer,LOW,1,1,6,0,0
customer,HIGH,1,1,2,0,0
customer,LOW,1,1,2,0,0
moderator,LOW,1,0,59,0,2
customer,LOW,1,1,6,0,0
moderator,MEDIUM,1,0,1,1,0
customer,LOW,1,1,2,0,0
customer,LOW,1,1,6,0,0
customer,LOW,1,1,1,0,0
customer,LOW,1,1,5,0,0
customer,LOW,1,1,3,0,0
customer,LOW,0,1,6,0,0
customer,MEDIUM,1,1,6,0,0
moderator,LOW,1,0,3,0,0
customer,HIGH,1,1,6,0,0
customer,LOW,0,1,60,4,2
customer,HIGH,1,1,3,0,0
customer,MEDIUM,1,1,6,0,0
customer,LOW,1,1,7,0,0
customer,LOW,0,1,1,0,0
moderator,MEDIUM,1,0,3,2,0
customer,MEDIUM,1,1,7,0,0
customer,LOW,1,1,5,0,0
customer,MEDIUM,1,1,45,0,2
customer,MEDIUM,1,1,2,0,0
customer,HIGH,1,1,5,0,0
customer,LOW,1,1,2,0,0
customer,LOW,0,1,6,0,0
customer,HIGH,1,1,0,0,0
customer,LOW,1,1,2,0,0
customer,MEDIUM,1,1,6,0,0
admin,MEDIUM,1,0,1,0,0
customer,MEDIUM,1,1,3,0,0
admin,MEDIUM,1,0,3,0,0
customer,LOW,1,1,7,0,0
moderator,LOW,0,0,2,0,0
moderator,LOW,1,0,7,0,0
customer,MEDIUM,0,1,4,0,0
customer,LOW,1,1,2,0,0
customer,LOW,0,1,4,0,0
customer,MEDIUM,1,1,2,0,0
customer,LOW,1,1,3,0,0
moderator,LOW,1,0,38,0,2
customer,MEDIUM,0,1,6,0,0
customer,LOW,1,1,5,0,0
customer,LOW,1,1,1,0,0
customer,HIGH,1,1,4,0,0
customer,LOW,1,1,5,0,0
customer,LOW,1,1,4,0,0
customer,MEDIUM,1,1,6,3,0
moderator,LOW,1,0,5,0,0
customer,LOW,1,1,0,0,0
moderator,LOW,1,1,2,0,0
customer,MEDIUM,1,1,2,0,0
moderator,HIGH,1,0,2,0,0
moderator,LOW,0,1,6,1,0
customer,MEDIUM,0,1,5,0,0
customer,LOW,0,1,4,0,0
customer,LOW,1,1,5,0,0
customer,LOW,0,1,3,0,0
customer,LOW,1,1,3,0,0
customer,LOW,1,1,2,3,0
moderator,LOW,1,0,4,0,0
customer,MEDIUM,1,1,2,0,0
moderator,LOW,1,1,6,0,0
customer,LOW,1,1,5,1,0
customer,LOW,0,1,7,0,0
moderator,LOW,0,0,3,0,0
customer,HIGH,1,1,3,0,0
customer,LOW,1,1,19,0,0
moderator,MEDIUM,1,0,3,0,0
customer,MEDIUM,1,1,2,0,0
customer,LOW,1,1,5,0,0
customer,LOW,1,1,3,0,0
customer,LOW,1,1,5,0,0
customer,MEDIUM,1,1,2,0,0
moderator,LOW,1,0,9,3,0
moderator,MEDIUM,1,0,4,0,0
customer,LOW,1,1,5,0,0
customer,LOW,1,1,51,0,2
moderator,LOW,1,0,7,0,0
customer,MEDIUM,1,1,4,0,0
customer,LOW,1,1,2,0,0
customer,MEDIUM,0,1,5,1,0
customer,MEDIUM,1,0,3,0,2
moderator,MEDIUM,1,0,1,0,0
customer,HIGH,1,1,1,0,0
moderator,MEDIUM,1,0,2,0,0
customer,HIGH,1,1,4,0,0
customer,LOW,1,1,4,8,2
customer,LOW,1,1,5,1,0
customer,MEDIUM,0,1,4,0,0
moderator,MEDIUM,1,0,1,0,0
customer,MEDIUM,1,1,3,0,0
customer,LOW,1,1,6,2,0
customer,LOW,1,1,4,6,2
customer,HIGH,1,1,57,0,2
customer,LOW,1,1,7,0,0
customer,HIGH,1,1,2,1,0
moderator,LOW,1,1,4,1,0
moderator,LOW,1,0,6,0,0
moderator,MEDIUM,0,0,4,1,1
customer,LOW,1,1,1,0,0
customer,LOW,0,0,4,0,1
customer,LOW,0,1,4,0,0
customer,LOW,1,1,4,0,0
customer,MEDIUM,1,1,6,1,0
customer,LOW,0,1,5,0,0
customer,LOW,0,1,4,0,0
customer,LOW,1,1,7,0,0
customer,LOW,1,1,5,1,0
customer,HIGH,1,1,4,0,0
customer,LOW,1,1,3,0,0
customer,LOW,1,1,61,0,2
moderator,LOW,1,0,5,0,0
customer,LOW,1,1,4,0,0
customer,MEDIUM,1,1,1,0,0
customer,LOW,1,1,7,0,0
customer,MEDIUM,0,1,3,0,0
customer,LOW,0,1,1,0,0
customer,MEDIUM,1,1,4,0,0
customer,MEDIUM,1,1,10,0,1
customer,LOW,0,1,2,0,0
customer,LOW,1,1,4,1,0
customer,MEDIUM,1,1,3,1,0
customer,MEDIUM,0,1,6,0,0
customer,LOW,0,1,4,4,0
customer,HIGH,1,1,6,0,0
customer,MEDIUM,1,1,5,0,0
customer,LOW,1,1,6,0,0
customer,LOW,1,0,5,3,1
moderator,LOW,1,0,7,0,0
customer,LOW,1,1,3,0,0
customer,LOW,1,1,53,4,2
customer,LOW,1,1,3,0,0
customer,LOW,1,1,3,1,0
customer,LOW,0,1,6,0,0
customer,LOW,1,1,4,0,0
moderator,LOW,1,0,1,1,0
moderator,LOW,0,0,6,0,0
customer,LOW,1,1,8,0,0
customer,MEDIUM,1,1,6,0,0
moderator,LOW,0,0,5,0,0
customer,MEDIUM,1,1,6,0,0
moderator,HIGH,1,0,2,0,2
admin,LOW,0,0,11,4,1
customer,HIGH,1,1,4,0,0
moderator,LOW,1,0,3,0,0
customer,LOW,1,1,5,0,0
customer,LOW,1,1,3,0,0
customer,MEDIUM,1,1,2,0,0
customer,MEDIUM,1,1,5,0,0
moderator,LOW,1,0,7,0,0
customer,LOW,1,1,1,0,0
customer,HIGH,1,1,2,0,0
customer,LOW,1,1,8,0,0
moderator,LOW,1,0,4,0,0
customer,LOW,1,1,3,0,0
customer,LOW,1,1,5,0,0
customer,MEDIUM,1,1,2,0,0
moderator,LOW,1,0,3,0,0
customer,HIGH,0,1,4,0,0
customer,MEDIUM,1,1,4,0,0
customer,HIGH,0,1,35,0,2
customer,LOW,1,1,4,0,0
moderator,MEDIUM,1,0,7,0,0
moderator,LOW,1,1,5,0,0
moderator,LOW,1,0,5,2,0
moderator,LOW,1,1,7,0,0
moderator,LOW,0,0,1,0,0
customer,LOW,1,1,10,0,1
moderator,MEDIUM,1,0,4,1,0
customer,LOW,1,1,2,0,0
customer,LOW,1,1,2,3,0
moderator,MEDIUM,1,1,28,0,1
moderator,MEDIUM,0,0,59,0,2
customer,MEDIUM,1,1,1,0,0
customer,LOW,1,1,4,0,0
customer,MEDIUM,1,1,3,0,0
customer,MEDIUM,1,1,4,0,0
customer,MEDIUM,0,1,5,0,0
customer,LOW,1,1,1,0,0
customer,LOW,1,1,3,0,0
moderator,HIGH,1,0,38,0,2
customer,LOW,1,1,8,0,0
customer,MEDIUM,1,1,5,0,0
admin,LOW,1,0,3,0,0
customer,LOW,0,1,3,0,0
customer,LOW,1,1,2,2,0
customer,MEDIUM,1,1,5,0,0
customer,LOW,1,0,5,0,1
customer,LOW,1,1,2,0,0
customer,LOW,1,1,6,0,0
customer,LOW,1,1,7,0,0
customer,LOW,1,1,3,0,0
customer,LOW,1,1,5,0,0
customer,HIGH,1,1,4,0,0
customer,LOW,1,1,4,0,0
customer,MEDIUM,1,1,5,0,0
customer,LOW,1,1,0,0,0
admin,MEDIUM,1,0,2,0,0
moderator,LOW,1,1,43,0,1
customer,LOW,1,1,4,1,0
moderator,LOW,1,0,5,0,0
customer,MEDIUM,1,1,1,0,0
customer,LOW,1,1,5,0,0
customer,MEDIUM,0,1,2,5,2
moderator,MEDIUM,1,1,4,0,0
customer,LOW,1,1,4,0,0
customer,MEDIUM,1,1,5,0,0
customer,LOW,1,0,2,0,1
customer,HIGH,0,1,6,0,0
customer,MEDIUM,0,1,4,0,0
moderator,LOW,1,0,2,1,0
customer,MEDIUM,1,1,29,0,0
customer,HIGH,0,1,2,0,0
customer,LOW,0,1,28,0,2
customer,MEDIUM,0,0,3,0,2
customer,MEDIUM,1,1,1,0,0
moderator,LOW,1,0,3,0,0
customer,LOW,1,1,6,0,0
customer,MEDIUM,1,1,2,0,0
customer,MEDIUM,1,1,1,0,0
customer,MEDIUM,1,1,5,0,0
customer,MEDIUM,0,1,2,0,0
moderator,LOW,1,0,1,0,0
customer,LOW,1,1,3,0,0
customer,MEDIUM,1,1,59,0,2
customer,LOW,1,0,4,0,1
moderator,MEDIUM,1,1,1,0,0
customer,LOW,1,1,63,0,2
customer,MEDIUM,1,1,3,4,0
moderator,LOW,1,0,48,0,2
customer,LOW,0,1,1,0,0
customer,MEDIUM,1,1,1,5,2
customer,LOW,1,1,2,0,0
customer,MEDIUM,1,1,4,0,0
moderator,LOW,1,0,3,0,0
customer,LOW,1,1,7,0,0
moderator,MEDIUM,1,0,5,0,0
customer,LOW,0,1,47,0,2
customer,LOW,1,1,4,0,0
customer,MEDIUM,1,1,4,0,0
moderator,LOW,1,0,9,0,0
customer,LOW,1,1,3,0,0
moderator,LOW,1,0,4,0,0
customer,LOW,1,1,5,0,0
customer,MEDIUM,1,0,3,2,2
customer,LOW,1,1,3,0,0
customer,HIGH,1,1,2,0,0
customer,LOW,1,1,2,0,0
customer,LOW,1,1,4,0,0
customer,MEDIUM,1,0,17,0,2
moderator,MEDIUM,1,0,4,0,0
customer,LOW,0,1,5,0,0
customer,LOW,1,1,1,0,0
customer,LOW,1,1,1,0,0
moderator,MEDIUM,1,1,42,0,1
moderator,LOW,1,0,4,0,0
customer,MEDIUM,1,1,3,0,0
customer,MEDIUM,1,1,3,0,0
customer,MEDIUM,0,1,2,0,0
moderator,MEDIUM,0,1,6,0,1
customer,LOW,0,1,1,0,0
customer,MEDIUM,1,1,3,0,0
customer,LOW,1,1,3,0,0
moderator,MEDIUM,1,0,61,0,2
customer,LOW,1,1,5,0,0
customer,LOW,1,1,5,0,0
customer,LOW,1,1,6,2,0
customer,LOW,0,1,4,0,0
moderator,LOW,1,0,3,0,0
customer,HIGH,1,1,45,2,2
customer,LOW,1,1,6,0,0
customer,LOW,1,1,1,0,0
customer,LOW,1,1,4,0,0
customer,MEDIUM,1,1,2,2,0
customer,MEDIUM,1,1,3,0,0
admin,MEDIUM,1,0,2,0,0
customer,LOW,0,1,4,0,0
moderator,MEDIUM,1,0,5,0,0
customer,LOW,1,1,3,5,2
customer,MEDIUM,0,1,5,0,0
moderator,LOW,1,0,3,0,0
customer,HIGH,1,1,8,0,0
moderator,LOW,1,1,3,0,0
moderator,MEDIUM,1,0,3,0,0
customer,LOW,1,1,3,0,0
moderator,LOW,1,0,3,0,0
customer,MEDIUM,1,1,4,0,0
moderator,HIGH,1,0,60,0,2
admin,LOW,0,0,56,0,1
customer,LOW,0,1,5,0,0
customer,LOW,1,1,2,0,0
customer,LOW,1,1,2,0,0
customer,LOW,1,1,2,0,0
customer,LOW,1,1,4,0,0
customer,HIGH,1,1,4,0,0
moderator,MEDIUM,1,0,6,0,0
customer,LOW,0,1,2,0,0
customer,LOW,1,1,7,0,0
customer,LOW,1,1,2,0,0
customer,LOW,1,1,6,0,0
admin,HIGH,1,0,5,0,0
customer,MEDIUM,1,1,5,0,0
moderator,MEDIUM,1,0,2,0,0
customer,LOW,1,1,5,0,0
customer,MEDIUM,1,1,8,0,0
customer,LOW,1,1,5,0,0
customer,LOW,1,1,1,0,0
moderator,MEDIUM,1,0,48,0,2
moderator,LOW,1,0,17,0,0
customer,LOW,1,1,9,0,1
customer,MEDIUM,1,1,9,0,1
customer,LOW,0,1,5,0,0
moderator,MEDIUM,0,1,4,4,1
customer,LOW,1,1,3,0,0
customer,MEDIUM,1,1,36,0,2
moderator,LOW,0,0,4,0,0
customer,LOW,1,1,5,0,0
customer,MEDIUM,0,1,3,0,0
customer,LOW,0,1,3,0,0
customer,MEDIUM,0,0,5,0,2
customer,MEDIUM,1,1,7,0,0
customer,MEDIUM,0,1,4,0,0
admin,MEDIUM,1,0,3,0,0
moderator,MEDIUM,1,0,2,0,0
customer,MEDIUM,1,1,5,0,0
customer,LOW,0,1,4,0,0
moderator,MEDIUM,1,0,5,0,0
customer,MEDIUM,1,1,1,0,0
customer,MEDIUM,1,1,5,0,0
customer,MEDIUM,1,1,5,0,0
customer,MEDIUM,1,1,2,0,0
customer,LOW,1,1,51,3,2
customer,LOW,1,1,3,2,0
customer,HIGH,0,1,4,0,0
customer,MEDIUM,0,1,5,0,0
customer,MEDIUM,0,1,1,0,0
customer,LOW,1,1,1,0,0
admin,LOW,0,0,5,1,0
customer,LOW,1,0,7,0,1
moderator,MEDIUM,1,0,0,0,0
customer,LOW,1,1,4,0,0
customer,MEDIUM,1,1,3,0,0
customer,MEDIUM,1,1,3,0,0
customer,LOW,1,1,5,0,0
moderator,LOW,1,0,5,0,0
customer,MEDIUM,1,1,3,0,0
admin,LOW,1,0,3,0,0
customer,MEDIUM,1,1,8,0,0
customer,LOW,1,1,0,0,0
customer,MEDIUM,1,1,7,0,0
moderator,MEDIUM,1,0,2,3,0
moderator,LOW,0,0,3,0,0
admin,MEDIUM,0,1,3,0,0
customer,HIGH,1,1,3,0,0
customer,HIGH,1,1,4,0,0
customer,LOW,1,1,8,2,0
customer,LOW,1,1,1,0,0
moderator,LOW,1,1,3,0,0
customer,LOW,1,1,1,0,0
moderator,MEDIUM,0,0,5,0,1
customer,MEDIUM,1,1,6,0,0
customer,MEDIUM,1,1,3,0,0
customer,LOW,1,1,3,0,0
customer,LOW,1,1,1,0,0
customer,LOW,0,1,3,0,0
customer,HIGH,1,1,3,0,0
customer,LOW,1,0,7,0,1
customer,MEDIUM,1,1,6,0,0
customer,MEDIUM,1,1,13,0,1
customer,MEDIUM,1,1,32,0,2
customer,LOW,1,1,2,2,0
moderator,LOW,1,0,2,0,0
moderator,LOW,1,1,5,0,0
customer,HIGH,0,1,6,0,0
customer,MEDIUM,1,1,2,0,0
customer,HIGH,0,1,3,0,0
moderator,LOW,1,0,4,5,2
customer,LOW,1,1,61,0,2
customer,LOW,1,1,3,0,0
customer,HIGH,1,1,6,0,0
customer,HIGH,1,1,3,0,0
moderator,LOW,1,0,3,0,0
customer,HIGH,0,1,5,0,0
customer,LOW,1,1,3,0,0
customer,LOW,1,1,3,0,0
customer,MEDIUM,1,1,6,0,0
moderator,LOW,1,0,4,2,0
customer,LOW,1,1,5,5,2
customer,MEDIUM,1,1,4,0,0
customer,LOW,1,1,7,0,0
customer,LOW,1,1,4,0,0
moderator,LOW,1,0,49,1,2
moderator,MEDIUM,1,0,5,0,0
customer,LOW,1,1,1,0,0
customer,MEDIUM,0,1,5,0,0
moderator,LOW,0,0,6,0,2
customer,LOW,0,1,31,0,2
customer,MEDIUM,1,1,3,0,0
customer,MEDIUM,1,0,6,0,2
customer,LOW,0,1,0,4,0
customer,LOW,1,1,8,0,0
customer,HIGH,1,1,3,0,0
customer,LOW,1,1,5,0,0
customer,MEDIUM,1,1,1,0,0
customer,LOW,1,0,3,0,1
customer,LOW,1,1,3,0,0
customer,LOW,1,1,5,0,0
customer,LOW,1,1,4,0,0
customer,LOW,1,1,1,1,0
customer,MEDIUM,1,1,2,0,0
customer,MEDIUM,1,1,6,0,0
moderator,LOW,0,0,3,1,0
customer,LOW,0,1,5,0,0
customer,LOW,1,1,3,0,0
customer,LOW,0,1,6,0,0
customer,LOW,1,0,2,0,1
customer,LOW,1,1,6,0,0
customer,LOW,1,0,5,3,1
customer,MEDIUM,1,1,4,0,0
customer,LOW,1,1,2,0,0
customer,LOW,0,1,3,0,0
customer,HIGH,0,1,2,0,0
customer,LOW,1,1,5,0,0
moderator,LOW,1,0,2,0,0
customer,LOW,1,1,32,6,2
customer,LOW,1,1,18,0,2
customer,LOW,1,1,5,0,0
customer,LOW,1,1,3,0,0
customer,MEDIUM,1,1,2,0,0
customer,MEDIUM,0,1,6,0,0
customer,MEDIUM,1,1,6,0,1
moderator,LOW,1,0,2,0,0
moderator,MEDIUM,1,0,3,0,0
customer,LOW,1,1,5,0,0
customer,LOW,1,1,5,2,0
customer,HIGH,1,1,5,0,0
customer,LOW,1,1,6,0,0
customer,MEDIUM,1,1,6,0,0
customer,HIGH,0,1,7,0,0
customer,MEDIUM,1,1,4,1,0
customer,MEDIUM,1,1,5,0,0
customer,LOW,0,0,4,0,1
customer,MEDIUM,1,0,5,3,2
moderator,HIGH,1,0,3,0,2
moderator,MEDIUM,1,0,13,0,0
customer,HIGH,1,1,4,0,0
moderator,LOW,1,1,4,3,0
customer,LOW,1,1,5,0,0
customer,MEDIUM,1,1,4,0,0
customer,LOW,1,1,6,0,0
customer,MEDIUM,0,1,4,0,0
customer,LOW,0,1,7,0,0
customer,MEDIUM,1,1,4,0,0
moderator,LOW,0,0,44,0,2
moderator,LOW,1,0,1,0,0
customer,LOW,1,1,4,0,0
moderator,LOW,0,0,3,0,0
customer,MEDIUM,1,1,3,0,0
customer,LOW,1,1,5,0,0
customer,LOW,1,1,5,4,0
customer,MEDIUM,1,1,3,0,0
moderator,HIGH,0,0,3,0,2
moderator,LOW,0,0,2,0,0
customer,LOW,1,1,3,0,0
customer,MEDIUM,1,1,1,0,0
moderator,LOW,1,0,7,0,0
customer,MEDIUM,0,0,4,3,2
customer,MEDIUM,1,1,4,0,0
moderator,LOW,1,1,4,0,0
customer,HIGH,1,1,3,0,0
admin,MEDIUM,1,0,2,0,0
customer,MEDIUM,1,1,6,3,0
moderator,LOW,0,0,7,3,0
customer,LOW,1,1,3,0,0
customer,MEDIUM,1,1,56,0,2
customer,MEDIUM,1,1,3,0,0
customer,LOW,1,1,2,0,0
customer,HIGH,1,1,6,0,0
customer,LOW,1,1,5,0,0
customer,LOW,1,1,4,0,0
customer,LOW,0,1,3,0,0
customer,LOW,0,1,3,0,0
customer,LOW,1,1,3,0,0
customer,LOW,1,1,46,0,2
customer,LOW,1,1,6,0,0
customer,LOW,1,1,8,0,0
customer,LOW,0,1,3,0,0
customer,MEDIUM,1,1,4,0,0
customer,MEDIUM,1,1,2,0,0
customer,MEDIUM,1,1,2,5,0
customer,MEDIUM,1,1,7,0,0
moderator,LOW,1,0,31,0,2
customer,LOW,0,1,6,0,0
customer,LOW,1,1,2,0,0
customer,LOW,1,1,49,0,2
moderator,LOW,1,0,4,0,0
customer,MEDIUM,1,1,3,0,0
customer,LOW,1,1,4,0,0
customer,LOW,1,1,5,0,0
customer,MEDIUM,0,1,5,2,0
customer,LOW,1,1,2,0,0
customer,LOW,1,1,1,0,0
customer,MEDIUM,1,1,4,0,0
moderator,MEDIUM,1,0,2,0,0
customer,MEDIUM,1,1,5,0,0
customer,MEDIUM,1,1,1,0,0
customer,LOW,1,1,3,0,0
customer,LOW,1,1,3,0,0
customer,LOW,1,1,4,0,0
customer,MEDIUM,1,1,4,0,0
customer,LOW,1,1,3,0,0
customer,LOW,1,1,29,0,2
customer,LOW,1,1,9,0,1
customer,LOW,0,1,0,0,0
customer,HIGH,0,1,2,0,0
customer,LOW,1,1,6,0,0
customer,LOW,1,1,9,0,1
customer,LOW,1,1,6,0,0
customer,LOW,1,1,3,0,0
customer,MEDIUM,1,1,7,0,0
customer,LOW,0,1,3,0,0
customer,HIGH,1,1,7,3,0
customer,LOW,1,1,3,0,0
customer,LOW,1,1,2,0,0
moderator,LOW,1,0,3,0,0
customer,LOW,1,1,5,0,0
customer,LOW,1,1,4,0,0
customer,LOW,0,1,4,0,0
moderator,LOW,1,0,3,0,0
customer,LOW,1,1,2,0,0
customer,HIGH,1,1,3,0,0
customer,LOW,1,1,5,0,0
customer,HIGH,0,1,8,0,0
customer,LOW,1,0,6,0,1
customer,LOW,1,1,4,0,0
customer,LOW,1,1,1,0,0
moderator,LOW,0,0,4,3,0
customer,MEDIUM,1,1,3,0,0
customer,HIGH,1,1,3,0,0
customer,LOW,1,0,3,0,1
customer,MEDIUM,0,1,4,0,0
customer,LOW,1,1,1,0,0
customer,MEDIUM,1,1,1,0,0
moderator,MEDIUM,1,0,5,0,0
moderator,LOW,1,0,2,0,0
customer,LOW,0,1,3,0,0
moderator,LOW,1,0,5,0,0
customer,HIGH,0,1,2,0,0
customer,MEDIUM,1,1,2,0,0
admin,LOW,1,0,3,2,0
customer,MEDIUM,1,1,4,0,0
moderator,HIGH,1,0,4,0,2
moderator,LOW,1,0,2,6,2
customer,MEDIUM,0,1,3,0,0
customer,LOW,1,0,4,0,1
customer,MEDIUM,1,1,2,0,0
customer,LOW,0,1,4,0,0
customer,LOW,1,1,4,0,0
moderator,LOW,1,0,3,0,0
customer,MEDIUM,1,1,4,0,0
customer,HIGH,1,1,5,0,0
moderator,LOW,0,1,6,0,0
customer,LOW,1,1,2,6,2
customer,LOW,1,1,3,0,0
customer,MEDIUM,0,1,9,1,1
moderator,LOW,1,0,1,6,2
customer,LOW,1,1,2,0,0
customer,LOW,1,0,40,0,2
customer,LOW,1,1,2,3,0
customer,LOW,1,0,4,0,1
customer,LOW,1,1,5,0,0
customer,LOW,1,1,4,0,0
customer,LOW,0,1,3,0,0
moderator,MEDIUM,1,0,6,0,0
customer,MEDIUM,1,1,4,0,0
customer,MEDIUM,0,1,62,0,2
moderator,LOW,1,0,3,0,0
moderator,LOW,1,0,3,0,0
admin,MEDIUM,1,0,4,0,0
moderator,LOW,1,0,3,0,0
customer,HIGH,1,1,5,0,0
moderator,HIGH,1,0,3,0,2
customer,LOW,0,1,6,0,0
customer,LOW,0,1,3,0,0
moderator,LOW,1,0,3,0,0
customer,MEDIUM,1,1,3,0,0
moderator,MEDIUM,0,0,1,0,0
customer,LOW,0,1,4,0,0
customer,LOW,0,1,35,0,2
customer,MEDIUM,1,1,4,0,0
customer,MEDIUM,0,1,2,0,0
moderator,LOW,1,0,5,1,0
customer,LOW,1,1,7,0,0
customer,LOW,1,1,7,4,0
customer,LOW,1,1,4,0,0
customer,MEDIUM,1,0,4,2,2
admin,LOW,0,0,3,0,0
customer,LOW,1,0,5,2,1
moderator,LOW,1,0,3,0,0
customer,HIGH,1,1,4,0,0
customer,LOW,1,1,4,0,0
customer,LOW,1,1,3,0,0
customer,LOW,1,1,4,3,0
customer,MEDIUM,1,1,9,0,1
customer,HIGH,0,0,0,0,2
customer,HIGH,1,1,3,1,0
moderator,LOW,1,0,5,0,0
customer,LOW,0,0,7,0,0
customer,MEDIUM,1,1,4,0,0
customer,LOW,1,1,1,0,0
customer,LOW,1,1,1,0,0
customer,MEDIUM,1,1,5,0,0
moderator,HIGH,1,0,5,0,2
customer,LOW,1,0,5,0,1
admin,MEDIUM,1,0,3,0,0
customer,LOW,1,1,4,0,0
admin,MEDIUM,0,0,4,0,0
customer,MEDIUM,1,1,5,0,0
customer,HIGH,1,0,3,0,2
moderator,MEDIUM,1,0,6,0,0
customer,MEDIUM,1,0,1,0,2
moderator,LOW,1,1,2,1,0
customer,LOW,1,1,1,0,0
customer,LOW,1,1,6,0,0
customer,LOW,1,0,5,0,1
customer,MEDIUM,1,1,5,0,0
customer,MEDIUM,1,1,3,0,0
moderator,LOW,1,0,1,0,0
customer,MEDIUM,1,1,5,0,0
customer,LOW,1,1,3,0,0
customer,MEDIUM,1,1,6,0,0
customer,LOW,1,1,31,0,2
customer,LOW,1,1,3,0,0
moderator,MEDIUM,1,1,3,0,0
customer,LOW,1,1,7,0,0
moderator,LOW,0,0,3,0,1
customer,MEDIUM,1,1,2,0,0
customer,MEDIUM,1,1,2,0,0
admin,LOW,1,0,3,0,0
customer,LOW,1,1,4,0,0
customer,LOW,0,1,6,1,0
moderator,LOW,1,0,5,0,0
customer,LOW,1,1,3,0,0
customer,LOW,1,1,2,0,0
customer,MEDIUM,0,1,6,0,0
customer,MEDIUM,1,1,5,0,0
admin,MEDIUM,1,0,2,0,0
customer,LOW,1,1,6,0,0
customer,LOW,1,1,3,0,0
customer,MEDIUM,0,1,8,1,0
customer,HIGH,1,0,5,0,2
customer,LOW,1,1,2,0,0
customer,LOW,0,1,4,0,0
customer,HIGH,1,1,3,0,0
customer,MEDIUM,0,0,6,2,2
customer,MEDIUM,0,1,5,0,0
moderator,LOW,1,0,1,0,0
customer,LOW,1,1,7,0,0
customer,LOW,1,0,15,0,0
customer,LOW,1,0,3,0,1
moderator,LOW,1,0,3,0,0
customer,MEDIUM,0,1,2,0,0
customer,LOW,1,1,3,0,0
admin,MEDIUM,0,0,4,1,0
admin,LOW,1,0,3,0,0
customer,MEDIUM,1,1,4,0,0
customer,HIGH,0,1,4,1,0
customer,HIGH,1,1,5,0,0
customer,MEDIUM,0,1,9,0,1
customer,LOW,1,1,4,0,0
moderator,LOW,1,0,2,0,0
moderator,MEDIUM,1,0,2,1,0
customer,LOW,0,0,1,0,1
customer,MEDIUM,1,1,6,0,0
customer,LOW,1,1,4,0,0
moderator,MEDIUM,1,0,2,0,0
customer,MEDIUM,1,1,4,0,0
customer,LOW,0,1,32,0,2
customer,LOW,1,1,4,1,0
customer,MEDIUM,1,1,2,0,0
customer,LOW,1,0,4,0,1
customer,LOW,1,1,2,0,0
customer,MEDIUM,1,1,7,0,0
customer,MEDIUM,1,1,2,0,0
customer,MEDIUM,1,1,7,0,0
customer,LOW,1,1,3,0,0
customer,MEDIUM,1,1,3,0,0
customer,LOW,1,1,3,0,0
customer,HIGH,1,1,4,0,0
customer,MEDIUM,0,1,3,0,0
customer,LOW,1,1,6,0,0
customer,LOW,1,1,4,0,0
customer,MEDIUM,1,1,5,3,0
customer,LOW,1,1,3,0,0
customer,MEDIUM,1,1,1,0,0
admin,MEDIUM,1,0,5,0,0
customer,LOW,1,1,2,0,0
customer,LOW,1,1,4,0,0
moderator,MEDIUM,1,0,4,0,0
customer,LOW,1,1,3,0,0
customer,MEDIUM,1,0,3,0,2
customer,HIGH,1,1,2,0,0
customer,LOW,1,1,2,0,0
moderator,MEDIUM,1,0,2,0,0
customer,LOW,1,1,4,0,0
moderator,LOW,1,0,8,0,0
customer,MEDIUM,0,1,4,0,0
customer,LOW,1,1,4,0,0
customer,LOW,1,1,4,3,0
customer,LOW,1,1,5,0,0
customer,LOW,0,1,7,0,0
customer,LOW,0,1,3,0,0
customer,LOW,1,1,5,0,0
customer,LOW,1,1,4,0,0
customer,LOW,0,1,2,0,0
moderator,MEDIUM,1,0,8,0,0
customer,MEDIUM,0,1,2,0,0
customer,LOW,1,1,3,0,0
customer,LOW,0,1,8,0,0
moderator,LOW,1,0,6,0,0
customer,LOW,1,1,7,0,0
customer,LOW,1,1,9,0,1
customer,LOW,1,1,3,1,0
customer,MEDIUM,0,1,1,0,0
moderator,MEDIUM,0,0,4,6,2
customer,LOW,1,1,3,2,0
customer,LOW,1,1,5,0,0
customer,LOW,1,1,1,0,0
customer,MEDIUM,1,1,37,0,2
customer,HIGH,0,0,7,0,2
customer,LOW,1,0,29,2,2
customer,LOW,1,1,1,0,0
customer,LOW,1,0,5,0,1
customer,HIGH,1,1,5,0,0
customer,LOW,1,1,4,0,0
customer,LOW,1,1,6,2,0
customer,HIGH,1,1,9,0,1
customer,LOW,1,1,9,0,1
moderator,LOW,1,1,4,0,0
customer,HIGH,0,1,7,0,0
customer,LOW,0,1,7,0,0
customer,HIGH,0,1,6,0,0
customer,HIGH,1,1,4,0,0
customer,MEDIUM,1,1,3,0,0
customer,MEDIUM,1,1,7,0,0
customer,LOW,1,1,1,0,0
customer,MEDIUM,1,1,0,0,0
admin,LOW,1,0,2,0,0
customer,LOW,1,1,5,0,0
moderator,MEDIUM,1,0,7,0,0
customer,MEDIUM,1,1,3,0,0
moderator,MEDIUM,0,0,8,0,1
customer,LOW,1,1,0,0,0
admin,HIGH,1,0,2,0,0
customer,LOW,1,0,3,1,1
admin,LOW,1,0,52,0,1
customer,MEDIUM,1,0,7,0,2
moderator,LOW,1,0,6,0,0
customer,LOW,0,1,3,0,0
admin,LOW,1,0,11,0,0
customer,MEDIUM,1,1,5,0,0
customer,LOW,1,0,4,0,1
customer,LOW,1,1,4,0,0
customer,LOW,1,1,5,0,0
moderator,MEDIUM,1,0,4,0,0
customer,LOW,1,1,6,0,0
moderator,LOW,1,0,6,0,0
customer,MEDIUM,1,1,0,0,0
admin,HIGH,1,0,15,0,0
moderator,LOW,0,0,5,0,0
customer,LOW,1,1,47,6,2
admin,LOW,1,0,3,0,0
moderator,MEDIUM,1,0,2,0,0
customer,HIGH,1,1,3,0,0
customer,LOW,1,1,4,0,0
moderator,LOW,1,0,3,0,0
customer,LOW,1,1,6,0,0
customer,MEDIUM,1,1,6,1,0
customer,LOW,1,1,5,1,0
moderator,MEDIUM,1,0,2,0,0
customer,MEDIUM,1,1,3,0,0
customer,LOW,0,1,3,0,0
customer,LOW,1,1,4,0,0
customer,LOW,1,1,1,0,0
moderator,LOW,1,0,3,0,0
customer,LOW,1,1,7,0,0
customer,MEDIUM,0,1,5,0,0
customer,LOW,1,1,1,0,0
admin,LOW,1,0,4,0,0
customer,LOW,1,1,2,0,0
customer,MEDIUM,0,1,1,0,0
customer,MEDIUM,1,1,5,0,0
customer,LOW,1,1,4,0,0
customer,LOW,0,1,4,0,0
customer,MEDIUM,1,1,2,0,0
moderator,LOW,1,1,8,0,0
customer,LOW,1,1,6,0,0
customer,LOW,1,1,7,0,0
customer,HIGH,1,1,4,2,0
customer,LOW,1,1,3,0,0
customer,LOW,0,1,4,5,2
moderator,LOW,1,0,8,0,0
customer,MEDIUM,0,1,5,0,0
moderator,MEDIUM,1,0,2,0,0
moderator,MEDIUM,1,0,1,0,0
customer,MEDIUM,1,1,3,0,0
customer,MEDIUM,1,1,6,0,0
customer,LOW,0,1,1,0,0
customer,LOW,1,1,2,0,0
customer,LOW,0,1,2,0,0
moderator,LOW,1,0,5,0,0
customer,MEDIUM,1,1,6,1,0
customer,LOW,1,1,6,1,0
moderator,MEDIUM,1,0,42,0,2
customer,LOW,1,1,3,0,0
admin,MEDIUM,1,0,1,0,0
moderator,LOW,1,0,1,0,0
customer,LOW,1,1,2,1,0
customer,LOW,1,1,7,0,0
moderator,LOW,1,0,1,0,0
customer,LOW,1,1,8,0,0
customer,LOW,0,0,6,0,1
customer,MEDIUM,1,1,4,1,0
customer,HIGH,1,1,4,0,0
moderator,HIGH,1,1,5,0,2
customer,LOW,1,1,2,0,0
admin,MEDIUM,1,0,2,0,0
customer,HIGH,1,1,2,7,2
customer,MEDIUM,0,1,9,4,1
customer,LOW,1,1,5,0,0
customer,LOW,1,1,4,0,0
customer,LOW,1,1,4,0,0
moderator,LOW,0,0,7,0,0
customer,LOW,1,1,7,0,0
customer,MEDIUM,1,1,6,0,0
customer,MEDIUM,1,1,7,0,0
customer,MEDIUM,1,1,4,0,0
customer,LOW,1,1,8,0,0
customer,MEDIUM,1,1,6,0,0
customer,LOW,1,1,5,0,0
customer,LOW,1,1,3,0,0
customer,LOW,1,1,5,0,0
customer,LOW,0,1,10,0,1
customer,MEDIUM,1,1,0,0,0
customer,LOW,0,1,0,1,0
customer,LOW,1,1,1,0,1
customer,LOW,0,1,4,0,0
customer,LOW,1,1,1,0,0
customer,LOW,1,1,8,0,0
moderator,LOW,1,0,1,0,0
customer,LOW,0,1,5,0,0
customer,LOW,1,1,10,0,1
customer,HIGH,1,1,4,0,0
customer,MEDIUM,1,1,4,0,0
customer,LOW,1,1,9,0,1
customer,LOW,1,1,2,0,0
customer,MEDIUM,1,1,5,0,0
customer,MEDIUM,1,1,2,0,0
customer,LOW,1,1,3,0,0
moderator,MEDIUM,1,1,32,3,1
moderator,LOW,1,0,3,0,0
customer,LOW,1,1,10,0,1
moderator,LOW,1,0,4,0,0
customer,LOW,1,1,6,0,0
moderator,LOW,1,0,4,0,0
customer,LOW,1,1,6,0,0
customer,LOW,0,1,5,0,0
customer,LOW,1,1,2,0,0
customer,LOW,1,1,5,0,0
customer,MEDIUM,1,1,4,0,0
customer,MEDIUM,1,1,2,0,0
customer,LOW,1,1,6,2,0
customer,HIGH,1,0,6,0,2
customer,MEDIUM,1,1,4,0,0
customer,LOW,1,0,5,0,1
moderator,LOW,1,0,4,0,0
moderator,MEDIUM,0,1,3,0,1
customer,LOW,1,1,3,0,0
customer,LOW,1,1,3,0,0
customer,LOW,1,0,4,0,1
customer,LOW,0,1,6,0,0
customer,LOW,1,1,1,0,0
moderator,MEDIUM,1,0,6,0,0
customer,MEDIUM,0,1,5,0,0
customer,LOW,1,1,48,0,2
customer,LOW,1,1,61,0,2
customer,LOW,1,1,16,0,2
customer,LOW,1,1,5,0,0
customer,LOW,1,1,57,0,2
customer,LOW,1,1,1,0,0
customer,LOW,1,1,4,0,0
customer,MEDIUM,1,1,1,0,0
moderator,LOW,1,0,4,0,0
customer,LOW,0,1,1,0,0
customer,LOW,1,1,2,0,0
customer,MEDIUM,1,1,3,0,0
moderator,MEDIUM,1,0,5,3,0
customer,MEDIUM,1,1,5,3,0
customer,LOW,1,1,4,0,0
customer,LOW,1,1,21,0,2
moderator,HIGH,1,0,2,0,2
customer,LOW,0,1,2,0,0
customer,MEDIUM,1,1,4,0,0
customer,MEDIUM,1,1,4,0,0
customer,MEDIUM,1,1,3,0,0
customer,LOW,1,1,4,3,0
customer,MEDIUM,1,1,1,0,0
customer,LOW,1,1,5,0,0
customer,LOW,1,1,4,0,0
customer,LOW,0,1,2,2,0
customer,LOW,1,1,5,0,0
customer,MEDIUM,1,1,3,0,0
customer,LOW,1,1,57,0,2
customer,MEDIUM,0,1,4,0,0
customer,MEDIUM,1,1,3,0,0
customer,MEDIUM,0,1,5,0,0
customer,LOW,1,1,4,0,0
admin,LOW,1,0,9,0,0
customer,LOW,1,1,6,0,0
customer,LOW,0,1,5,0,0
customer,LOW,1,1,7,0,0
customer,MEDIUM,1,1,3,0,0
customer,MEDIUM,0,1,2,0,0
customer,LOW,1,1,6,0,0
customer,LOW,1,1,3,0,0
moderator,LOW,1,0,8,0,0
customer,LOW,1,1,5,0,0
customer,MEDIUM,1,1,2,0,0
customer,MEDIUM,0,1,2,0,0
customer,MEDIUM,1,1,7,3,0
customer,LOW,1,1,5,0,0
customer,MEDIUM,0,1,4,0,0
customer,LOW,1,1,4,0,0
moderator,LOW,0,0,4,0,0
customer,LOW,0,1,6,0,0
moderator,HIGH,1,0,4,0,2
customer,LOW,1,1,6,0,0
customer,HIGH,1,1,7,0,0
customer,MEDIUM,1,1,5,0,0
customer,LOW,0,1,2,0,0
moderator,LOW,1,0,3,0,0
admin,LOW,1,0,5,0,0
moderator,LOW,0,0,6,0,0
moderator,LOW,1,0,5,0,0
customer,LOW,1,1,2,0,0
customer,MEDIUM,1,1,3,0,0
customer,LOW,0,1,5,0,0
customer,LOW,1,1,7,3,0
moderator,LOW,1,0,5,0,0
moderator,LOW,0,0,6,0,0
customer,LOW,1,1,2,0,0
customer,LOW,0,1,3,0,0
moderator,HIGH,1,0,53,0,2
customer,LOW,0,1,2,0,0
admin,MEDIUM,0,1,1,0,0
customer,MEDIUM,1,1,5,0,0
customer,LOW,0,1,6,0,0
customer,LOW,1,1,6,0,0
customer,LOW,1,1,5,0,0
customer,LOW,1,1,5,0,0
customer,LOW,1,1,3,0,0
customer,LOW,1,1,5,0,0
customer,LOW,1,1,24,0,2
customer,MEDIUM,1,1,2,0,0
customer,LOW,1,1,2,0,0
customer,HIGH,1,1,6,0,0
customer,LOW,1,1,6,0,0
customer,LOW,1,1,3,0,0
moderator,LOW,1,0,5,0,0
customer,LOW,1,1,3,0,0
moderator,LOW,1,1,5,0,0
customer,LOW,1,1,4,0,0
customer,LOW,0,1,5,0,0
customer,MEDIUM,1,1,8,0,0
moderator,LOW,0,0,7,0,0
customer,MEDIUM,0,1,2,1,0
moderator,LOW,1,0,4,0,0
moderator,HIGH,0,0,3,0,2
customer,LOW,0,1,32,0,2
customer,MEDIUM,1,1,5,0,0
customer,LOW,1,1,6,3,0
customer,LOW,1,1,3,0,0
customer,LOW,1,1,9,0,1
customer,MEDIUM,1,1,4,0,0
customer,LOW,1,1,29,0,1
moderator,MEDIUM,1,0,6,0,0
customer,MEDIUM,1,1,5,0,0
customer,LOW,1,1,2,0,0
customer,MEDIUM,1,1,5,0,0
moderator,MEDIUM,0,0,6,0,1
moderator,LOW,1,0,4,0,0
customer,HIGH,1,0,8,7,0
customer,MEDIUM,0,1,5,0,0
customer,HIGH,1,1,3,0,0
customer,HIGH,1,1,7,0,0
moderator,LOW,0,0,10,0,0
moderator,LOW,1,0,4,0,0
moderator,LOW,0,0,3,0,0
customer,LOW,1,1,3,0,0
moderator,MEDIUM,1,0,4,0,1
customer,LOW,0,1,3,0,0
customer,LOW,1,1,3,0,0
moderator,LOW,1,0,2,0,0
customer,MEDIUM,1,1,2,6,2
customer,MEDIUM,0,1,3,0,0
customer,LOW,1,1,2,0,0
customer,MEDIUM,1,0,41,0,2
moderator,MEDIUM,1,0,9,0,0
customer,MEDIUM,1,1,2,0,0
customer,LOW,0,1,5,0,0
customer,LOW,1,1,1,0,0
customer,LOW,0,1,2,0,0
moderator,MEDIUM,1,0,8,0,0
admin,LOW,1,0,6,0,0
customer,MEDIUM,1,1,5,0,0
moderator,MEDIUM,1,0,4,1,0
moderator,LOW,1,1,2,0,0
customer,LOW,1,1,8,0,0
customer,LOW,1,1,8,0,0
customer,MEDIUM,1,1,4,0,0
customer,LOW,1,1,2,0,0
customer,MEDIUM,1,1,6,0,0
customer,LOW,1,1,6,5,2
customer,MEDIUM,1,1,2,0,0
customer,LOW,0,1,4,0,0
moderator,LOW,1,0,6,0,0
customer,HIGH,0,1,3,0,0
customer,HIGH,1,1,5,2,0
customer,MEDIUM,1,1,4,0,0
customer,LOW,0,1,5,0,0
customer,LOW,1,1,3,3,0
customer,MEDIUM,1,1,2,0,0
moderator,LOW,0,0,3,0,0
customer,LOW,1,1,5,0,0
moderator,MEDIUM,1,0,5,0,0
customer,LOW,1,1,3,0,0
moderator,LOW,1,0,3,0,0
customer,LOW,1,1,5,0,0
admin,MEDIUM,1,0,2,0,0
customer,MEDIUM,1,1,4,0,0
moderator,LOW,0,1,6,0,0
moderator,LOW,0,0,4,0,0
customer,LOW,1,1,10,0,1
customer,MEDIUM,1,1,7,0,0
customer,MEDIUM,1,1,3,0,0
customer,HIGH,0,1,5,0,0
customer,MEDIUM,1,0,5,0,2
customer,MEDIUM,1,1,2,0,0
customer,LOW,1,1,2,0,0
customer,LOW,0,1,4,0,0
customer,HIGH,1,1,2,0,0
customer,LOW,1,1,5,0,0
customer,MEDIUM,1,1,7,0,0
customer,LOW,1,1,5,0,0
customer,LOW,1,1,2,0,0
customer,LOW,1,1,1,0,0
customer,LOW,1,1,4,0,0
customer,LOW,1,1,4,0,0
moderator,LOW,1,0,8,0,0
moderator,LOW,0,0,4,0,0
customer,HIGH,0,1,4,0,0
customer,LOW,0,1,0,0,0
customer,MEDIUM,1,1,8,0,0
customer,LOW,1,1,4,0,0
customer,LOW,1,1,4,0,0
customer,LOW,1,1,4,0,0
customer,MEDIUM,1,1,7,0,0
customer,LOW,1,1,6,2,0
customer,LOW,1,1,5,0,0
customer,LOW,1,1,9,0,1
customer,MEDIUM,0,1,2,0,0
customer,LOW,0,1,4,0,0
moderator,MEDIUM,1,0,3,0,0
customer,LOW,0,1,5,0,0
customer,MEDIUM,1,0,6,0,2
customer,LOW,1,1,3,0,0
customer,LOW,1,1,2,0,0
customer,MEDIUM,1,0,7,0,2
customer,MEDIUM,1,1,3,0,0
customer,LOW,1,1,4,0,0
customer,LOW,1,1,1,0,0
moderator,LOW,1,0,1,5,2
customer,LOW,1,1,3,0,0
customer,LOW,1,1,3,0,0
moderator,LOW,0,0,3,0,0
moderator,MEDIUM,1,0,3,1,0
moderator,LOW,0,0,5,1,0
admin,LOW,1,0,5,0,0
moderator,MEDIUM,1,0,3,0,0
customer,LOW,1,0,1,0,1
customer,MEDIUM,1,1,3,0,0
customer,MEDIUM,1,1,5,1,0
customer,MEDIUM,0,1,7,0,0
customer,LOW,1,1,2,0,0
customer,MEDIUM,1,1,5,0,0
admin,MEDIUM,0,0,7,0,0
customer,MEDIUM,0,1,4,0,0
admin,MEDIUM,1,1,5,0,0
customer,LOW,1,1,4,0,0
customer,MEDIUM,1,1,3,0,0
customer,LOW,1,1,6,2,0
moderator,LOW,1,0,1,0,0
customer,MEDIUM,0,1,5,1,0
customer,LOW,1,1,5,0,0
admin,LOW,1,0,7,0,0
customer,LOW,1,1,44,0,2
customer,HIGH,1,1,3,0,0
customer,LOW,0,1,29,6,2
customer,LOW,0,1,4,0,0
customer,HIGH,0,1,3,0,0
admin,LOW,1,0,5,1,0
customer,LOW,1,1,2,0,0
customer,LOW,1,1,2,0,0
customer,MEDIUM,1,1,3,2,0
customer,LOW,1,1,8,0,0
customer,HIGH,1,1,2,0,0
customer,HIGH,1,1,3,0,0
customer,LOW,1,1,2,0,0
customer,HIGH,1,1,5,0,0
customer,MEDIUM,1,1,62,0,2
customer,MEDIUM,1,1,2,0,0
moderator,LOW,1,0,4,0,0
customer,MEDIUM,0,1,10,0,1
customer,LOW,1,1,4,0,0
customer,LOW,1,1,8,0,0
moderator,MEDIUM,1,0,3,0,0
customer,MEDIUM,1,1,4,0,0
customer,LOW,1,1,5,0,0
customer,HIGH,1,1,19,0,2
customer,LOW,1,1,5,0,0
customer,HIGH,1,1,4,0,0
moderator,LOW,1,0,3,0,0
customer,LOW,0,1,6,0,0
customer,MEDIUM,0,1,3,0,0
customer,MEDIUM,0,1,5,0,0
customer,LOW,0,1,5,1,0
customer,MEDIUM,1,1,4,0,0
moderator,LOW,1,1,5,0,0
customer,MEDIUM,1,1,7,0,2
customer,LOW,1,1,7,0,0
customer,MEDIUM,1,1,7,0,0
customer,LOW,1,0,3,0,1
customer,LOW,1,1,1,0,0
moderator,LOW,1,0,3,0,0
customer,LOW,1,1,15,0,1
customer,HIGH,1,1,6,0,0
customer,HIGH,1,1,3,0,0
customer,LOW,1,1,3,0,0
customer,LOW,1,1,6,0,0
admin,LOW,1,0,18,0,0
admin,LOW,1,0,5,0,0
customer,HIGH,1,1,3,0,0
customer,LOW,1,1,4,0,0
customer,HIGH,1,1,1,0,0
customer,MEDIUM,1,1,1,0,0
moderator,LOW,1,0,4,0,0
customer,MEDIUM,1,1,1,0,0
customer,LOW,1,1,5,0,0
customer,LOW,1,1,50,0,2
moderator,LOW,1,0,8,0,0
moderator,MEDIUM,1,1,4,0,0
customer,HIGH,1,1,3,0,0
admin,HIGH,1,1,2,0,0
customer,LOW,1,1,7,0,0
moderator,LOW,1,0,3,5,2
customer,MEDIUM,1,1,2,0,0
customer,LOW,0,1,8,1,0
customer,LOW,1,1,2,0,0
customer,HIGH,1,1,6,0,0
admin,LOW,0,0,3,0,0
customer,LOW,1,1,55,0,2
customer,LOW,1,1,2,4,0
customer,MEDIUM,1,1,6,0,0
customer,MEDIUM,1,1,2,0,0
moderator,LOW,0,0,4,0,0
customer,LOW,0,1,5,0,0
customer,MEDIUM,1,1,4,0,0
customer,MEDIUM,1,1,5,0,0
customer,LOW,1,1,3,0,0
customer,LOW,0,1,2,0,0
customer,MEDIUM,1,0,37,1,2
customer,LOW,1,1,4,0,0
customer,LOW,0,1,5,0,0
customer,LOW,1,1,2,1,0
moderator,HIGH,1,0,5,0,2
customer,LOW,1,1,2,0,0
moderator,LOW,1,0,3,0,0
customer,LOW,1,1,3,0,0
customer,LOW,0,1,49,0,2
moderator,LOW,1,0,2,0,0
customer,LOW,1,0,4,3,1
customer,MEDIUM,1,1,57,0,2
customer,LOW,1,1,4,0,0
customer,MEDIUM,1,1,3,0,0
moderator,LOW,0,0,7,0,0
customer,LOW,1,1,2,0,0
customer,MEDIUM,1,1,3,0,0
admin,MEDIUM,1,0,3,2,0
customer,LOW,1,1,4,0,0
customer,HIGH,1,1,3,0,0
moderator,LOW,1,0,8,0,0
customer,LOW,1,1,3,0,0
customer,MEDIUM,1,1,7,0,0
customer,LOW,1,1,3,0,0
customer,MEDIUM,1,1,57,0,2
customer,LOW,1,1,5,1,0
customer,LOW,1,1,6,0,0
customer,MEDIUM,1,1,4,0,0
customer,LOW,1,1,6,1,0
customer,MEDIUM,1,0,2,0,2
customer,LOW,1,1,3,0,0
customer,MEDIUM,1,1,5,1,0
moderator,LOW,1,0,2,0,0
moderator,LOW,1,0,3,0,0
customer,LOW,1,1,1,0,0
customer,LOW,1,1,3,0,0
customer,MEDIUM,1,1,6,0,0
moderator,LOW,1,1,4,0,0
customer,LOW,0,1,5,0,1
customer,LOW,1,1,4,0,0
moderator,LOW,1,0,2,0,0
customer,LOW,1,0,5,0,1
customer,LOW,1,1,3,0,0
customer,HIGH,1,1,7,0,0
customer,MEDIUM,1,1,3,0,0
customer,MEDIUM,1,1,2,0,0
moderator,MEDIUM,1,1,6,0,0
customer,LOW,1,1,4,0,0
customer,LOW,1,1,1,0,0
customer,LOW,1,1,7,0,0
customer,MEDIUM,1,1,4,0,0
customer,LOW,1,1,6,0,0
customer,HIGH,1,1,3,0,0
customer,LOW,1,1,6,0,0
admin,HIGH,1,0,4,0,0
moderator,MEDIUM,1,0,3,0,0
moderator,HIGH,1,0,6,0,2
customer,LOW,1,1,2,0,0
customer,LOW,1,1,4,0,0
customer,LOW,1,1,4,0,0
customer,MEDIUM,1,1,3,0,0
customer,LOW,1,1,0,3,0
customer,MEDIUM,1,1,1,0,0
customer,LOW,1,1,5,0,0
customer,HIGH,1,1,2,0,0
customer,MEDIUM,1,1,2,0,0
customer,LOW,1,1,3,0,0
customer,LOW,1,1,2,7,2
moderator,LOW,1,0,2,0,0
moderator,LOW,1,0,3,0,0
customer,MEDIUM,1,1,8,0,0
customer,LOW,1,1,3,0,0
customer,MEDIUM,0,1,7,0,0
customer,LOW,1,1,4,1,0
customer,LOW,1,1,3,1,0
moderator,MEDIUM,1,0,3,0,0
customer,LOW,1,1,5,0,0
customer,LOW,1,1,1,0,0
moderator,HIGH,1,1,4,0,2
customer,LOW,0,1,2,0,0
customer,MEDIUM,1,1,4,0,0
moderator,LOW,1,0,5,0,1
customer,LOW,1,1,15,0,0
customer,MEDIUM,1,1,3,0,0
customer,LOW,1,1,21,0,2
customer,LOW,1,1,4,0,0
customer,MEDIUM,1,1,6,0,0
customer,MEDIUM,0,1,7,5,2
customer,LOW,1,1,4,0,0
customer,MEDIUM,1,1,1,2,0
customer,LOW,1,1,8,0,0
customer,LOW,1,1,9,0,1
admin,LOW,1,0,5,0,0
customer,MEDIUM,1,1,3,0,0
customer,LOW,1,1,2,0,0
customer,MEDIUM,0,1,3,0,0
customer,LOW,0,1,6,0,0
moderator,MEDIUM,1,0,4,0,0
customer,LOW,1,1,3,0,0
customer,MEDIUM,1,1,5,0,0
customer,LOW,1,1,3,0,0
customer,MEDIUM,1,1,10,0,1
customer,LOW,1,1,5,0,0
customer,LOW,0,0,1,0,1
customer,LOW,1,1,8,0,0
customer,MEDIUM,1,1,11,0,1
customer,HIGH,1,1,1,0,0
admin,LOW,0,0,3,0,0
customer,LOW,1,1,3,0,0
customer,LOW,1,1,7,5,2
customer,LOW,1,1,3,0,0
customer,LOW,0,1,3,3,0
customer,MEDIUM,1,1,5,0,0
customer,LOW,0,1,7,0,0
moderator,LOW,1,0,7,0,0
customer,LOW,1,1,4,0,0
customer,LOW,1,1,6,0,0
customer,LOW,1,1,4,0,0
customer,MEDIUM,1,1,7,3,0
moderator,LOW,1,0,4,0,0
customer,LOW,1,1,64,0,2
customer,MEDIUM,1,1,9,0,1
customer,MEDIUM,1,1,4,0,0
customer,LOW,1,1,7,0,0
customer,LOW,1,1,5,0,0
customer,LOW,1,1,4,0,0
customer,LOW,0,1,5,2,0
moderator,MEDIUM,1,0,6,0,0
customer,MEDIUM,1,1,2,0,0
admin,LOW,1,0,2,0,0
customer,LOW,1,1,2,0,0
customer,HIGH,1,1,23,0,2
customer,MEDIUM,1,1,3,0,0
customer,LOW,0,1,4,0,0
customer,MEDIUM,0,1,5,0,0
admin,MEDIUM,0,0,3,0,0
customer,LOW,1,1,4,0,0
customer,MEDIUM,1,1,1,0,0
customer,HIGH,1,1,7,0,0
customer,LOW,1,1,4,0,0
customer,HIGH,0,1,4,0,0
customer,LOW,1,1,5,0,0
customer,LOW,0,1,7,0,0
customer,LOW,1,1,7,0,0
moderator,MEDIUM,1,0,2,0,0
customer,MEDIUM,1,1,4,0,0
customer,MEDIUM,1,1,3,0,0
customer,LOW,1,1,5,0,0
moderator,HIGH,1,1,4,0,2
admin,MEDIUM,1,0,6,3,1
customer,LOW,1,0,3,2,1
admin,LOW,1,0,2,0,0
customer,LOW,1,1,5,0,0
admin,HIGH,1,0,3,0,0
customer,LOW,1,1,3,0,0
customer,LOW,1,1,1,0,0
customer,MEDIUM,1,1,8,0,0
customer,MEDIUM,1,1,2,0,0
customer,LOW,1,1,17,0,2
customer,MEDIUM,1,1,9,2,1
moderator,HIGH,1,1,5,0,2
moderator,LOW,1,0,3,0,0
customer,LOW,1,1,5,0,0
moderator,LOW,1,0,3,1,0
customer,HIGH,1,1,5,0,0
customer,LOW,1,1,6,0,0
customer,MEDIUM,1,0,3,0,2
moderator,LOW,1,0,5,0,0
customer,MEDIUM,1,1,3,0,0
customer,MEDIUM,1,1,2,0,0
customer,LOW,1,1,7,0,0
customer,LOW,1,0,7,1,1
customer,LOW,1,1,5,0,0
customer,LOW,1,1,3,0,0
customer,LOW,1,1,2,0,0
customer,LOW,1,1,6,0,0
customer,LOW,1,1,7,0,0
customer,HIGH,1,1,1,0,0
customer,LOW,1,1,3,0,0
customer,HIGH,0,1,4,0,0
customer,MEDIUM,1,1,7,0,0
moderator,LOW,0,0,2,1,0
customer,HIGH,0,1,6,0,0
customer,HIGH,1,1,9,0,1
customer,LOW,0,1,6,0,0
customer,MEDIUM,0,1,2,0,0
customer,HIGH,0,1,3,0,0
customer,MEDIUM,1,1,6,1,0
customer,MEDIUM,1,1,3,0,0
customer,LOW,0,1,8,0,0
customer,MEDIUM,0,1,5,0,0
customer,MEDIUM,1,1,1,0,0
customer,LOW,0,1,2,0,0
customer,MEDIUM,1,0,4,7,2
customer,LOW,1,0,1,0,1
customer,LOW,1,1,6,0,0
customer,MEDIUM,1,1,3,0,0
customer,LOW,1,1,3,1,0
customer,LOW,1,1,5,0,0
customer,HIGH,1,1,0,0,0
customer,MEDIUM,1,1,3,1,0
customer,LOW,1,1,4,0,0
customer,HIGH,0,1,5,0,0
customer,MEDIUM,1,1,4,0,0
customer,MEDIUM,1,1,4,0,0
customer,LOW,1,1,1,0,0
moderator,LOW,1,0,35,0,2
moderator,LOW,1,0,10,1,0
admin,MEDIUM,1,0,4,0,0
customer,HIGH,1,1,3,0,0
moderator,LOW,1,0,5,0,0
customer,LOW,1,1,1,0,0
customer,LOW,1,1,7,0,0
moderator,LOW,1,0,4,1,0
customer,HIGH,1,1,6,0,0
customer,LOW,1,0,7,0,1
customer,LOW,0,1,5,1,0
customer,MEDIUM,1,1,5,0,0
customer,MEDIUM,0,1,3,0,0
customer,MEDIUM,1,1,17,0,2
customer,MEDIUM,0,1,2,0,0
customer,MEDIUM,1,1,4,0,0
customer,LOW,0,1,0,0,0
customer,MEDIUM,0,1,6,0,0
customer,MEDIUM,0,1,4,0,0
customer,MEDIUM,0,1,6,0,0
customer,MEDIUM,1,1,0,0,0
customer,LOW,1,1,6,0,0
customer,HIGH,0,1,26,0,2
admin,LOW,1,1,2,0,0
customer,LOW,1,1,6,0,0
customer,LOW,0,1,2,0,0
customer,LOW,1,1,4,0,0
customer,LOW,0,1,4,0,0
moderator,MEDIUM,1,0,3,1,0
moderator,LOW,1,0,4,6,2
admin,LOW,1,0,4,0,0
customer,MEDIUM,0,1,3,0,0
customer,LOW,0,1,5,2,0
customer,LOW,1,0,4,0,1
customer,LOW,1,1,7,0,0
customer,LOW,1,1,3,1,0
customer,LOW,1,1,4,0,0
moderator,HIGH,1,1,1,0,0
customer,LOW,0,1,7,0,0
customer,MEDIUM,1,1,5,1,0
customer,MEDIUM,1,1,2,0,0
moderator,LOW,1,0,3,0,0
customer,MEDIUM,1,1,3,0,0
customer,LOW,0,0,5,0,1
customer,MEDIUM,1,1,6,0,0
customer,LOW,1,1,1,0,0
customer,LOW,0,1,32,0,2
customer,MEDIUM,1,1,4,1,0
customer,MEDIUM,1,1,3,0,0
customer,MEDIUM,1,1,3,0,0
customer,LOW,1,1,8,0,0
moderator,MEDIUM,1,1,7,0,0
customer,LOW,0,1,52,0,2
customer,LOW,1,1,4,5,2
customer,MEDIUM,1,1,6,0,0
customer,LOW,1,1,1,0,0
customer,LOW,1,1,4,0,0
customer,MEDIUM,0,0,10,0,2
admin,LOW,1,0,1,0,0
customer,LOW,1,1,5,0,0
customer,HIGH,1,1,3,0,0
customer,LOW,1,1,4,0,0
customer,MEDIUM,0,1,6,0,0
customer,MEDIUM,1,1,4,0,0
customer,MEDIUM,0,0,3,0,0
customer,MEDIUM,1,1,5,0,0
customer,LOW,1,0,4,0,1
customer,MEDIUM,1,1,2,0,0
moderator,LOW,1,0,3,0,0
customer,MEDIUM,1,1,5,0,0
customer,LOW,1,1,5,0,0
moderator,LOW,0,0,2,0,0
moderator,HIGH,1,0,16,0,2
customer,LOW,1,1,3,0,0
customer,LOW,1,1,4,0,0
customer,LOW,1,1,2,0,0
customer,LOW,1,1,6,0,0
customer,LOW,1,1,1,0,0
moderator,LOW,1,0,2,0,0
admin,MEDIUM,0,0,7,0,0
moderator,LOW,1,1,4,0,0
moderator,LOW,1,0,4,0,0
moderator,MEDIUM,1,0,3,0,0
customer,LOW,1,1,7,3,0
customer,LOW,0,1,8,0,0
customer,LOW,0,1,4,0,0
customer,LOW,1,1,5,0,0
customer,MEDIUM,0,1,6,0,0
customer,LOW,1,1,9,1,1
moderator,LOW,1,0,1,0,0
customer,HIGH,1,1,4,0,0
moderator,MEDIUM,1,0,5,0,0
customer,LOW,1,1,5,0,0
customer,LOW,1,1,9,6,2
customer,LOW,1,1,4,0,0
customer,LOW,1,1,9,0,1
customer,MEDIUM,1,1,6,0,0
customer,HIGH,1,1,63,0,2
customer,LOW,0,1,3,0,0
customer,HIGH,1,1,3,0,0
customer,MEDIUM,1,1,4,0,0
customer,LOW,0,1,1,0,0
moderator,MEDIUM,1,1,7,0,0
moderator,LOW,1,0,8,3,1
customer,MEDIUM,1,1,4,0,0
moderator,LOW,1,0,4,0,0
customer,MEDIUM,1,1,5,0,0
customer,LOW,1,1,4,0,0
customer,LOW,1,1,3,0,0
moderator,HIGH,0,0,3,0,2
customer,MEDIUM,0,1,4,0,0
customer,LOW,1,1,3,0,0
customer,LOW,1,1,5,0,0
moderator,LOW,1,1,1,0,0
customer,LOW,1,1,2,0,0
customer,LOW,1,1,4,0,0
moderator,LOW,1,0,5,1,0
customer,LOW,1,1,6,0,0
customer,LOW,1,1,9,0,1
moderator,LOW,1,0,2,0,0
customer,LOW,1,1,40,0,2
moderator,MEDIUM,1,1,5,0,0
customer,LOW,1,1,3,0,0
customer,MEDIUM,1,1,2,0,0
moderator,MEDIUM,1,1,3,0,0
moderator,LOW,1,1,2,0,0
customer,LOW,1,1,5,0,0
customer,MEDIUM,1,1,16,0,2
customer,HIGH,1,1,2,0,0
customer,MEDIUM,1,1,53,0,2
customer,MEDIUM,1,1,5,0,0
customer,LOW,1,1,4,0,0
customer,LOW,0,1,4,0,0
customer,MEDIUM,1,1,2,0,0
customer,LOW,0,1,2,0,0
customer,MEDIUM,1,1,47,0,2
customer,LOW,0,1,6,0,0
customer,LOW,1,1,5,0,0
customer,LOW,1,0,2,0,1
moderator,LOW,1,0,4,0,0
customer,LOW,1,1,2,3,0
customer,MEDIUM,0,1,2,0,0
customer,HIGH,1,1,19,0,2
customer,MEDIUM,1,1,2,0,0
customer,MEDIUM,1,1,2,0,0
customer,LOW,1,1,6,0,0
customer,MEDIUM,0,1,4,0,0
customer,HIGH,1,1,6,0,0
customer,MEDIUM,1,1,3,0,0
customer,MEDIUM,1,1,3,0,0
customer,LOW,1,1,4,0,0
moderator,LOW,1,0,2,6,2
customer,LOW,1,1,2,0,0
admin,HIGH,1,0,4,0,0
moderator,LOW,1,0,2,0,0
customer,LOW,1,1,5,0,0
customer,LOW,1,1,6,0,0
moderator,MEDIUM,0,0,2,0,1
customer,LOW,1,1,4,0,0
customer,MEDIUM,1,1,7,0,0
customer,LOW,1,1,4,5,2
customer,LOW,1,1,3,0,0
moderator,HIGH,1,0,3,0,2
customer,LOW,1,1,1,0,0
customer,HIGH,1,1,2,0,0
customer,MEDIUM,0,1,6,1,0
moderator,LOW,0,1,4,0,0
customer,HIGH,0,1,4,0,0
moderator,MEDIUM,1,0,5,0,0
moderator,MEDIUM,1,0,2,2,0
customer,LOW,0,1,60,0,2
customer,HIGH,1,1,8,0,0
customer,MEDIUM,0,1,25,0,2
moderator,MEDIUM,0,0,3,0,1
customer,HIGH,1,1,5,0,0
customer,LOW,1,1,4,0,0
admin,LOW,1,0,5,0,0
customer,LOW,1,1,8,0,0
customer,MEDIUM,1,1,1,0,0
customer,LOW,1,1,5,0,0
customer,LOW,1,1,7,0,0
customer,MEDIUM,0,1,2,0,0
moderator,MEDIUM,1,0,6,0,0
moderator,MEDIUM,1,0,3,0,0
customer,LOW,1,1,0,0,2
moderator,MEDIUM,1,1,6,0,0
customer,MEDIUM,1,1,5,0,0
customer,MEDIUM,1,1,2,4,0
customer,LOW,1,1,4,0,0
customer,MEDIUM,0,1,8,0,0
customer,LOW,1,0,4,0,1
customer,LOW,1,1,4,0,0
customer,LOW,1,1,5,0,0
customer,MEDIUM,1,1,3,0,0
customer,HIGH,1,1,3,0,0
admin,LOW,1,0,3,0,0
customer,LOW,1,1,8,0,0
moderator,HIGH,1,1,7,0,2
moderator,LOW,0,0,0,0,0
customer,LOW,1,1,6,0,2
customer,MEDIUM,1,1,3,0,0
moderator,LOW,1,0,7,0,0
customer,LOW,1,1,8,0,0
customer,MEDIUM,1,1,6,0,0
moderator,LOW,1,0,7,2,0
moderator,LOW,1,0,2,0,0
moderator,MEDIUM,1,0,3,0,0
customer,LOW,1,1,6,0,0
moderator,MEDIUM,1,0,3,0,0
customer,LOW,0,1,4,0,0
customer,LOW,1,1,2,0,0
customer,LOW,0,1,7,0,0
customer,LOW,1,1,4,0,0
customer,LOW,1,1,5,0,0
customer,LOW,0,1,2,0,0
customer,LOW,1,1,8,0,0
customer,HIGH,1,1,2,0,1
customer,HIGH,1,1,4,0,0
customer,LOW,1,1,4,0,2
customer,HIGH,1,1,5,0,0
customer,LOW,1,1,2,0,0
moderator,LOW,1,1,5,0,0
customer,LOW,1,0,4,0,1
admin,MEDIUM,1,0,0,0,0
customer,LOW,0,1,3,0,0
customer,LOW,1,1,4,0,0
customer,LOW,1,1,9,0,1
moderator,LOW,1,0,4,0,0
customer,LOW,1,1,3,0,0
moderator,LOW,0,0,6,0,0
admin,LOW,1,0,4,0,0
customer,MEDIUM,1,1,4,0,0
moderator,LOW,1,0,8,0,0
customer,HIGH,0,1,4,0,0
customer,MEDIUM,0,1,39,0,2
customer,MEDIUM,1,1,4,0,0
moderator,LOW,1,1,10,1,0
moderator,LOW,1,0,3,0,0
customer,MEDIUM,1,1,5,0,0
customer,LOW,1,1,3,0,0
customer,MEDIUM,1,1,5,4,0
customer,LOW,0,1,1,0,0
moderator,LOW,1,1,6,0,0
customer,LOW,1,1,4,0,0
customer,MEDIUM,1,1,7,2,0
customer,LOW,1,1,1,0,0
customer,MEDIUM,1,1,4,0,0
customer,LOW,1,1,4,0,0
moderator,LOW,1,0,5,0,0
customer,LOW,0,1,11,0,1
customer,LOW,1,0,1,0,1
moderator,LOW,1,0,3,0,0
customer,MEDIUM,0,1,5,0,0
customer,LOW,1,1,5,0,0
moderator,LOW,1,0,6,0,0
moderator,LOW,1,0,60,0,2
admin,LOW,1,0,3,0,0
customer,LOW,1,1,3,0,0
customer,MEDIUM,1,1,56,0,2
admin,LOW,1,1,3,0,0
customer,LOW,1,1,4,0,0
moderator,LOW,1,0,3,0,0
customer,LOW,1,1,5,0,0
customer,MEDIUM,1,1,5,0,0
customer,MEDIUM,1,1,3,0,0
admin,MEDIUM,1,0,4,0,0
customer,LOW,0,1,4,1,0
customer,LOW,0,1,2,0,0
customer,LOW,1,1,2,0,0
customer,LOW,1,1,2,0,0
admin,LOW,1,0,3,8,2
customer,LOW,1,0,3,0,1
customer,LOW,0,1,1,1,0
customer,LOW,1,1,3,0,0
customer,LOW,1,1,3,0,0
customer,MEDIUM,0,1,5,0,0
customer,LOW,1,1,2,0,0
customer,HIGH,1,0,6,1,2
customer,LOW,1,1,4,0,0
customer,HIGH,1,1,2,1,0
customer,LOW,0,1,27,0,2
customer,LOW,1,1,6,0,0
customer,LOW,1,1,5,0,0
customer,MEDIUM,0,1,5,0,0
customer,LOW,1,1,5,0,0
moderator,MEDIUM,1,0,2,0,0
customer,MEDIUM,1,1,5,0,0
admin,LOW,1,1,5,0,0
customer,MEDIUM,1,1,2,0,0
customer,HIGH,0,1,3,1,0
customer,LOW,1,1,2,0,0
customer,MEDIUM,0,1,4,0,0
customer,MEDIUM,1,1,2,0,0
customer,MEDIUM,0,1,2,0,0
customer,LOW,1,1,3,0,0
moderator,MEDIUM,1,0,3,0,0
customer,MEDIUM,0,1,4,0,0
customer,MEDIUM,1,1,5,0,0
admin,LOW,1,0,2,0,0
customer,HIGH,0,1,2,0,0
customer,HIGH,1,1,4,0,0
moderator,HIGH,1,0,4,0,2
moderator,LOW,1,0,3,0,0
customer,LOW,1,1,3,0,0
customer,LOW,1,1,1,0,0
customer,MEDIUM,1,1,6,0,0
customer,LOW,1,1,6,0,0
admin,LOW,1,0,4,0,0
customer,LOW,1,1,4,0,0
customer,LOW,1,1,2,0,0
moderator,MEDIUM,1,1,0,0,0
customer,LOW,0,1,6,0,0
customer,MEDIUM,1,1,3,0,0
moderator,MEDIUM,1,0,4,1,0
customer,MEDIUM,0,1,4,0,0
customer,LOW,0,1,3,0,0
moderator,LOW,1,1,25,0,1
customer,MEDIUM,1,1,2,3,0
customer,HIGH,1,1,7,0,0
customer,LOW,1,1,5,7,2
customer,MEDIUM,1,1,5,0,0
customer,LOW,1,1,4,0,0
moderator,LOW,0,0,5,0,0
customer,LOW,1,1,7,0,0
customer,LOW,0,1,5,0,0
customer,LOW,1,1,7,0,0
moderator,LOW,1,0,5,0,0
customer,MEDIUM,0,1,8,3,0
customer,LOW,1,1,3,0,0
customer,LOW,1,1,3,0,0
customer,LOW,1,0,3,0,1
customer,LOW,1,1,56,0,2
customer,LOW,0,1,6,0,0
moderator,LOW,1,0,5,0,0
admin,LOW,1,1,4,0,0
moderator,MEDIUM,1,1,2,0,0
customer,LOW,1,1,4,0,0
customer,MEDIUM,1,1,2,0,0
customer,LOW,1,1,4,0,0
customer,HIGH,0,1,1,0,0
customer,LOW,1,1,4,0,0
customer,LOW,1,1,2,0,0
customer,MEDIUM,1,1,7,0,0
moderator,MEDIUM,0,0,3,0,0
admin,LOW,1,1,4,0,0
customer,LOW,1,1,0,0,0
customer,MEDIUM,1,1,7,2,0
customer,MEDIUM,1,1,8,0,0
customer,LOW,1,1,5,0,0
customer,LOW,1,1,2,0,0
moderator,LOW,1,0,2,3,0
customer,MEDIUM,0,1,6,0,0
customer,LOW,1,1,1,0,0
admin,LOW,1,1,4,0,0
customer,LOW,0,0,6,0,0
customer,MEDIUM,1,1,5,0,0
customer,LOW,1,1,4,0,0
customer,LOW,1,1,6,0,0
customer,LOW,1,1,5,0,0
moderator,MEDIUM,1,0,4,0,0
customer,LOW,1,1,4,0,0
moderator,LOW,1,0,2,0,0
customer,LOW,1,1,6,0,0
moderator,MEDIUM,1,1,3,0,0
moderator,MEDIUM,1,0,3,0,0
customer,LOW,1,1,3,0,0
customer,LOW,1,1,6,0,0
customer,LOW,1,1,1,0,0
customer,LOW,1,1,1,0,0
customer,LOW,1,1,2,5,2
customer,LOW,1,1,1,0,0
customer,LOW,1,1,6,0,0
customer,MEDIUM,1,1,4,0,0
customer,LOW,1,1,1,0,0
customer,LOW,0,1,4,2,0
customer,LOW,1,1,2,0,0
customer,LOW,1,1,0,0,0
customer,LOW,1,1,4,0,0
customer,LOW,1,1,4,0,0
customer,MEDIUM,0,1,4,2,0
customer,LOW,1,1,1,0,0
customer,LOW,1,1,1,0,0
customer,MEDIUM,1,1,5,0,0
customer,LOW,0,1,5,0,0
customer,LOW,0,1,5,0,0
customer,LOW,1,1,5,0,0
customer,HIGH,0,1,5,0,0
customer,LOW,0,0,3,6,2
customer,LOW,0,1,2,0,0
customer,LOW,0,1,1,0,0
moderator,LOW,1,0,5,0,0
customer,LOW,1,1,3,0,0
moderator,LOW,1,1,1,0,0
customer,LOW,1,1,7,0,0
admin,HIGH,1,0,30,0,1
admin,MEDIUM,1,1,7,0,0
customer,MEDIUM,1,1,4,0,0
customer,LOW,1,1,6,0,0
moderator,MEDIUM,1,0,4,0,0
customer,LOW,0,1,2,0,0
customer,MEDIUM,1,1,5,0,1
customer,HIGH,1,1,2,0,0
customer,HIGH,1,1,3,0,0
customer,LOW,1,1,8,0,0
customer,HIGH,1,0,2,0,2
customer,LOW,1,1,4,0,0
customer,LOW,1,0,3,0,1
admin,LOW,1,0,2,0,1
customer,LOW,1,1,3,5,2
customer,MEDIUM,1,1,7,0,0
customer,HIGH,1,1,6,0,0
customer,LOW,1,1,4,0,0
customer,LOW,1,1,5,0,0
customer,LOW,1,1,5,0,0
customer,LOW,1,1,3,0,0
customer,MEDIUM,1,1,6,0,0
customer,MEDIUM,1,1,4,0,0
customer,MEDIUM,1,1,2,0,0
customer,MEDIUM,1,1,2,1,0
customer,MEDIUM,1,1,3,1,0
customer,LOW,1,1,3,0,0
customer,LOW,0,1,5,0,0
customer,HIGH,1,1,1,5,2
customer,LOW,1,1,6,0,0
moderator,LOW,1,0,6,0,0
customer,MEDIUM,1,1,10,0,1
moderator,LOW,1,0,4,0,0
moderator,LOW,1,0,2,0,0
customer,LOW,0,1,4,2,0
moderator,LOW,1,0,3,0,0
customer,LOW,1,1,3,0,0
customer,LOW,1,1,3,0,0
customer,MEDIUM,1,1,8,0,0
customer,MEDIUM,1,0,2,0,2
customer,LOW,1,1,2,0,0
moderator,LOW,1,1,5,0,0
customer,MEDIUM,1,0,4,0,2
moderator,MEDIUM,1,0,3,1,0
customer,LOW,1,1,35,0,2
customer,MEDIUM,1,1,2,0,0
customer,MEDIUM,1,1,3,1,0
customer,LOW,0,1,6,1,0
customer,MEDIUM,0,1,7,0,0
customer,LOW,1,1,3,0,0
customer,LOW,1,1,2,0,0
customer,LOW,1,1,4,0,0
moderator,LOW,1,0,2,0,0
customer,HIGH,0,1,4,0,0
customer,LOW,1,1,6,0,0
customer,LOW,1,1,3,0,0
customer,LOW,1,1,0,0,0
customer,MEDIUM,0,1,3,0,0
customer,LOW,1,1,6,3,0
admin,LOW,1,0,4,0,0
customer,LOW,1,1,5,0,0
customer,LOW,1,1,6,0,0
customer,LOW,1,1,2,0,0
moderator,MEDIUM,1,0,6,0,0
customer,LOW,1,1,0,0,0
customer,MEDIUM,1,1,2,0,0
customer,LOW,1,1,4,0,0
customer,LOW,0,1,5,0,0
admin,LOW,1,0,3,0,0
customer,MEDIUM,1,1,3,0,0
customer,HIGH,1,1,7,0,0
customer,LOW,1,1,5,0,0
customer,HIGH,1,1,0,0,0
customer,LOW,1,1,4,0,0
customer,MEDIUM,1,1,6,0,0
admin,LOW,1,0,5,0,0
customer,MEDIUM,1,1,9,0,1
customer,MEDIUM,1,1,2,0,0
moderator,MEDIUM,1,1,6,1,0
customer,LOW,1,1,6,0,0
customer,MEDIUM,1,1,2,0,0
moderator,MEDIUM,1,0,2,0,0
customer,LOW,1,1,2,0,0
moderator,LOW,1,0,6,8,2
customer,LOW,1,1,4,0,0
customer,LOW,0,1,1,0,0
moderator,MEDIUM,0,1,5,0,1
customer,MEDIUM,1,1,4,0,0
admin,HIGH,1,0,4,0,0
customer,MEDIUM,1,1,2,0,0
moderator,LOW,1,0,2,0,0
customer,LOW,1,1,4,0,0
moderator,MEDIUM,1,0,3,0,0
customer,HIGH,1,1,4,0,0
customer,MEDIUM,1,1,4,0,0
moderator,LOW,1,0,5,0,0
moderator,LOW,1,0,2,0,0
moderator,LOW,1,0,3,0,0
customer,MEDIUM,1,1,6,0,0
customer,MEDIUM,1,1,5,0,0
moderator,LOW,1,1,4,0,0
customer,LOW,1,1,1,0,0
customer,LOW,1,1,5,0,0
moderator,LOW,1,0,1,0,0
customer,LOW,1,1,3,0,0
customer,MEDIUM,1,1,3,0,0
customer,MEDIUM,1,1,1,0,0
customer,LOW,1,1,2,0,0
moderator,HIGH,1,0,5,0,1
customer,MEDIUM,1,1,6,0,0
customer,LOW,0,1,7,0,0
customer,LOW,1,1,2,3,0
customer,LOW,1,1,3,8,2
customer,LOW,1,1,0,0,0
customer,MEDIUM,1,1,3,0,0
customer,MEDIUM,1,1,6,0,0
customer,MEDIUM,1,1,5,0,0
customer,LOW,1,1,4,0,0
customer,LOW,0,1,3,0,0
customer,LOW,1,1,3,0,0
moderator,MEDIUM,1,0,5,0,0
customer,LOW,0,1,2,0,0
customer,LOW,1,1,5,0,0
customer,LOW,0,1,6,0,0
customer,LOW,1,1,2,0,0
admin,LOW,1,0,3,0,0
moderator,MEDIUM,1,0,3,0,0
customer,LOW,1,1,2,0,0
customer,LOW,0,1,5,0,0
customer,LOW,0,1,4,0,0
customer,LOW,0,1,2,0,0
customer,MEDIUM,1,1,4,0,0
customer,LOW,1,1,7,0,0
customer,LOW,0,1,5,0,0
customer,LOW,1,1,2,2,0
customer,LOW,1,1,2,1,0
moderator,LOW,1,0,4,0,0
customer,LOW,1,1,4,0,0
admin,HIGH,1,0,1,0,0
customer,LOW,0,1,4,0,1
moderator,LOW,1,0,4,6,2
customer,MEDIUM,1,1,4,2,0
customer,MEDIUM,0,1,4,0,0
customer,MEDIUM,1,1,5,0,0
customer,LOW,1,1,4,0,0
moderator,LOW,0,1,1,0,0
customer,MEDIUM,1,1,5,0,0
customer,LOW,1,1,1,0,0
customer,LOW,1,1,5,0,0
customer,HIGH,0,1,4,0,0
customer,MEDIUM,1,1,4,0,0
customer,HIGH,1,1,4,0,0
customer,LOW,0,1,3,0,0
customer,MEDIUM,1,1,4,0,0
customer,MEDIUM,0,1,5,4,0
customer,LOW,1,1,3,0,0
customer,HIGH,1,1,7,0,0
customer,LOW,0,1,26,0,2
customer,MEDIUM,1,0,4,0,2
customer,LOW,1,1,6,0,0
moderator,MEDIUM,1,0,3,0,0
customer,LOW,1,1,5,0,0
admin,HIGH,1,0,4,5,2
moderator,LOW,1,0,3,0,0
customer,HIGH,1,1,3,0,0
customer,MEDIUM,1,1,3,0,2
customer,MEDIUM,1,1,2,0,0
admin,LOW,0,0,4,0,0
moderator,LOW,1,0,4,0,0
moderator,MEDIUM,0,0,5,0,1
customer,LOW,1,1,2,0,0
customer,LOW,1,1,2,0,0
customer,LOW,1,1,1,0,0
customer,MEDIUM,1,1,4,0,0
customer,HIGH,1,1,32,0,2
customer,LOW,1,1,3,0,0
customer,HIGH,1,1,7,0,0
customer,LOW,0,1,6,0,0
customer,MEDIUM,1,1,3,0,0
moderator,LOW,0,0,3,0,0
customer,LOW,0,1,3,0,0
customer,LOW,1,1,1,0,0
customer,LOW,1,1,3,0,0
customer,MEDIUM,1,1,3,0,0
customer,LOW,1,1,4,0,0
customer,HIGH,1,1,6,0,0
customer,LOW,1,1,3,0,0
customer,LOW,1,1,3,2,0
moderator,MEDIUM,0,0,10,0,1
customer,MEDIUM,1,1,3,0,0
customer,MEDIUM,1,1,6,4,0
customer,LOW,1,1,4,0,0
customer,MEDIUM,1,1,6,0,0
admin,LOW,1,0,5,0,0
customer,LOW,1,1,3,0,0
customer,MEDIUM,1,1,1,0,0
customer,LOW,0,1,3,0,0
customer,MEDIUM,1,1,4,0,0
moderator,MEDIUM,1,0,6,0,0
customer,LOW,0,1,7,0,0
customer,MEDIUM,1,1,5,0,0
customer,MEDIUM,0,1,4,0,0
customer,LOW,1,1,5,0,0
moderator,LOW,1,0,6,0,0
customer,LOW,0,0,2,3,1
customer,MEDIUM,1,1,3,0,0
moderator,MEDIUM,1,0,7,0,0
customer,LOW,1,1,4,0,0
moderator,LOW,1,0,3,0,0
customer,MEDIUM,0,1,4,0,0
moderator,LOW,1,1,1,0,0
customer,LOW,1,1,4,0,0
customer,LOW,1,1,7,2,0
moderator,LOW,1,0,8,0,1
customer,MEDIUM,1,1,3,0,0
customer,LOW,1,1,7,0,0
moderator,MEDIUM,0,0,5,0,1
admin,MEDIUM,1,0,0,0,0
customer,LOW,1,1,2,0,0
customer,MEDIUM,1,1,6,0,0
moderator,LOW,1,0,5,0,0
customer,LOW,1,1,3,0,0
customer,LOW,1,1,5,0,0
customer,LOW,1,1,2,0,0
customer,MEDIUM,1,1,2,0,0
customer,LOW,1,1,4,0,0
customer,LOW,0,0,8,0,1
customer,LOW,1,1,8,0,0
moderator,LOW,1,0,2,0,0
moderator,LOW,1,0,4,0,0
admin,LOW,1,0,3,0,0
moderator,LOW,1,0,2,0,0
customer,MEDIUM,1,1,5,0,0
customer,LOW,1,1,4,0,0
customer,MEDIUM,0,1,54,0,2
customer,MEDIUM,1,1,0,0,0
moderator,LOW,1,0,3,0,0
customer,MEDIUM,0,1,4,0,0
customer,HIGH,1,0,5,0,2
customer,LOW,1,1,5,0,0
customer,LOW,1,1,3,0,0
customer,MEDIUM,1,0,5,2,2
customer,LOW,1,1,5,0,0
customer,LOW,1,1,6,1,0
customer,LOW,1,1,6,0,0
customer,LOW,1,1,4,0,0
customer,LOW,1,1,5,2,0
customer,LOW,1,1,2,0,0
customer,MEDIUM,0,1,5,0,0
customer,LOW,0,1,3,0,0
customer,LOW,1,1,4,0,0
moderator,LOW,0,1,5,0,0
customer,MEDIUM,1,1,24,0,2
customer,MEDIUM,1,1,4,0,0
customer,LOW,1,1,6,0,0
customer,MEDIUM,1,0,2,0,2
customer,LOW,1,1,2,0,0
customer,LOW,1,1,5,0,0
customer,LOW,1,1,5,0,0
customer,LOW,0,1,3,0,0
customer,LOW,1,1,3,1,0
customer,HIGH,1,1,5,0,0
customer,LOW,1,1,6,0,0
customer,LOW,1,0,5,3,1
customer,MEDIUM,1,1,9,0,1
admin,MEDIUM,1,0,6,8,2
customer,MEDIUM,0,1,4,0,0
customer,LOW,0,1,3,0,0
moderator,MEDIUM,1,0,6,0,0
customer,LOW,1,1,4,2,0
customer,LOW,1,0,7,1,1
moderator,LOW,0,0,4,0,0
moderator,LOW,1,0,7,0,0
customer,MEDIUM,1,1,3,0,0
customer,LOW,0,1,4,1,0
customer,MEDIUM,1,1,7,0,0
customer,MEDIUM,1,0,3,0,2
moderator,MEDIUM,0,0,2,2,1
customer,LOW,1,1,6,0,0
moderator,LOW,1,0,5,0,0
customer,LOW,1,1,2,0,0
customer,MEDIUM,1,1,5,0,0
customer,LOW,0,1,4,0,0
moderator,LOW,0,0,2,0,0
customer,LOW,1,1,7,0,0
customer,LOW,1,1,9,0,1
moderator,MEDIUM,1,0,7,0,0
customer,LOW,1,1,4,0,0
customer,LOW,1,1,2,0,0
customer,LOW,1,1,2,0,0
moderator,MEDIUM,1,0,3,0,0
customer,LOW,1,1,3,0,0
customer,MEDIUM,0,1,3,0,0
moderator,HIGH,0,0,6,0,2
customer,LOW,0,1,4,0,0
customer,HIGH,1,1,7,0,0
customer,LOW,1,1,5,0,0
customer,LOW,0,1,4,0,0
customer,LOW,1,1,4,0,0
customer,LOW,1,1,4,0,0
moderator,LOW,1,0,6,0,0
customer,LOW,1,1,2,0,0
customer,LOW,1,1,1,0,0
customer,MEDIUM,0,1,4,0,0
moderator,LOW,1,0,2,0,0
moderator,MEDIUM,1,0,4,2,0
customer,LOW,1,1,3,0,0
moderator,MEDIUM,1,1,2,0,0
customer,LOW,1,1,6,0,0
customer,MEDIUM,1,1,7,0,0
customer,MEDIUM,1,1,4,0,0
admin,HIGH,1,0,3,0,0
moderator,LOW,1,0,8,0,0
customer,MEDIUM,1,1,5,0,0
customer,MEDIUM,1,1,0,0,0
customer,LOW,0,1,5,0,0
customer,LOW,0,1,6,0,0
customer,LOW,1,1,7,0,0
customer,HIGH,1,1,3,0,0
customer,LOW,1,1,1,1,0
customer,MEDIUM,1,1,29,0,2
admin,MEDIUM,1,0,2,0,0
moderator,MEDIUM,1,0,3,0,0
customer,MEDIUM,1,1,2,0,0
customer,LOW,1,1,3,0,0
customer,LOW,1,1,5,0,0
customer,LOW,1,1,3,0,0
moderator,LOW,1,0,3,0,0
customer,LOW,0,1,7,0,0
moderator,LOW,1,0,7,0,0
customer,LOW,1,1,2,0,0
customer,LOW,1,1,2,0,0
customer,HIGH,1,1,6,0,0
moderator,LOW,1,0,3,0,0
customer,LOW,0,1,3,1,0
customer,HIGH,0,1,4,0,0
customer,LOW,1,1,4,0,0
customer,LOW,1,1,2,7,2
customer,HIGH,1,1,1,0,0
customer,LOW,0,1,4,3,0
customer,LOW,1,1,3,0,0
customer,LOW,1,1,5,0,0
customer,LOW,1,1,4,0,0
customer,MEDIUM,1,1,5,0,0
customer,MEDIUM,0,1,6,0,0
customer,MEDIUM,0,1,25,0,2
moderator,LOW,0,1,3,1,0
customer,LOW,1,1,0,0,0
customer,LOW,1,0,6,0,1
customer,LOW,1,1,4,0,0
moderator,LOW,1,0,3,0,0
moderator,HIGH,1,0,8,2,2
customer,LOW,1,1,6,0,0
customer,LOW,1,1,1,0,0
customer,LOW,1,1,5,0,0
customer,MEDIUM,1,1,46,0,2
customer,MEDIUM,0,1,4,0,0
customer,LOW,1,1,3,0,0
moderator,MEDIUM,1,0,6,0,0
customer,LOW,1,1,5,0,0
customer,MEDIUM,1,1,2,0,0
customer,LOW,1,1,2,0,0
customer,LOW,1,1,5,6,2
customer,LOW,1,1,1,0,0
customer,LOW,1,1,44,0,2
moderator,HIGH,1,0,4,0,2
moderator,HIGH,1,0,4,0,2
customer,MEDIUM,1,1,2,0,0
customer,HIGH,1,1,4,0,0
